Ga128 Fe1 O192
1.0
24.936138 0.000000 0.000000
0.000000 12.349429 0.000000
-2.783376 0.000000 11.431629
Ir Ga O
1 128 192
direct
0.307429 0.625000 0.387165 Fe
0.078377 0.625000 0.160298 Ga
0.066655 0.625000 0.707762 Ga
0.078406 0.877756 0.157926 Ga
0.079523 0.877891 0.658918 Ga
0.079315 0.125000 0.157284 Ga
0.079581 0.125000 0.656577 Ga
0.078406 0.372244 0.157926 Ga
0.079523 0.372109 0.658918 Ga
0.170753 0.756384 0.332282 Ga
0.171803 0.751383 0.845110 Ga
0.171690 0.000985 0.345323 Ga
0.171191 0.001045 0.843879 Ga
0.171690 0.249015 0.345323 Ga
0.171191 0.248955 0.843879 Ga
0.170753 0.493616 0.332282 Ga
0.171803 0.498617 0.845110 Ga
0.040848 0.751441 0.391179 Ga
0.041281 0.754651 0.907547 Ga
0.044721 0.000638 0.397114 Ga
0.044838 0.001449 0.897349 Ga
0.044721 0.249362 0.397114 Ga
0.044838 0.248551 0.897349 Ga
0.040848 0.498559 0.391179 Ga
0.041281 0.495349 0.907547 Ga
0.206285 0.625000 0.103970 Ga
0.132417 0.625000 0.564143 Ga
0.206402 0.875305 0.101902 Ga
0.206489 0.870790 0.602086 Ga
0.205098 0.125000 0.103460 Ga
0.206273 0.125000 0.604396 Ga
0.206402 0.374695 0.101902 Ga
0.206489 0.379210 0.602086 Ga
0.331056 0.749330 0.152247 Ga
0.332724 0.755311 0.665574 Ga
0.329564 0.000161 0.158682 Ga
0.329797 0.000807 0.657063 Ga
0.329564 0.249837 0.158682 Ga
0.329797 0.249193 0.657063 Ga
0.331056 0.500670 0.152247 Ga
0.332724 0.494689 0.665574 Ga
0.423342 0.625000 0.337552 Ga
0.422742 0.625000 0.844595 Ga
0.420842 0.874692 0.342326 Ga
0.422870 0.876585 0.844601 Ga
0.421166 0.125000 0.343678 Ga
0.421714 0.125000 0.843333 Ga
0.420842 0.375308 0.342326 Ga
0.422870 0.373415 0.844601 Ga
0.246252 0.625000 0.531687 Ga
0.294093 0.625000 0.890980 Ga
0.295113 0.870365 0.399247 Ga
0.294955 0.875680 0.897129 Ga
0.294687 0.125000 0.396842 Ga
0.295419 0.125000 0.897818 Ga
0.295113 0.379635 0.399247 Ga
0.294955 0.374320 0.897129 Ga
0.457287 0.751037 0.101527 Ga
0.455791 0.749970 0.600008 Ga
0.455552 0.000400 0.103346 Ga
0.455439 -0.000006 0.602159 Ga
0.455552 0.249600 0.103346 Ga
0.455439 0.250006 0.602159 Ga
0.457287 0.498963 0.101527 Ga
0.455791 0.500030 0.600008 Ga
0.579679 0.125000 0.157445 Ga
0.579485 0.125000 0.656441 Ga
0.580057 0.374366 0.156806 Ga
0.579528 0.374793 0.656468 Ga
0.580043 0.625000 0.156594 Ga
0.579596 0.625000 0.656316 Ga
0.580057 0.875634 0.156806 Ga
0.579528 0.875207 0.656468 Ga
0.670769 0.000235 0.342831 Ga
0.670757 0.000204 0.842061 Ga
0.670769 0.249765 0.342831 Ga
0.670757 0.249796 0.842061 Ga
0.670740 0.499820 0.342399 Ga
0.670647 0.499875 0.841974 Ga
0.670740 0.750180 0.342399 Ga
0.670647 0.750125 0.841974 Ga
0.545055 0.000026 0.397097 Ga
0.546068 0.000618 0.897785 Ga
0.545055 0.249974 0.397097 Ga
0.546068 0.249382 0.897785 Ga
0.545782 0.499220 0.396983 Ga
0.545929 0.499736 0.897197 Ga
0.545782 0.750780 0.396983 Ga
0.545929 0.750264 0.897197 Ga
0.704612 0.125000 0.101841 Ga
0.705188 0.125000 0.602285 Ga
0.704705 0.374797 0.101671 Ga
0.704872 0.374772 0.601953 Ga
0.704623 0.625000 0.101468 Ga
0.704616 0.625000 0.601647 Ga
0.704705 0.875203 0.101671 Ga
0.704872 0.875228 0.601953 Ga
0.828383 0.000326 0.155618 Ga
0.828853 0.000236 0.655350 Ga
0.828383 0.249674 0.155618 Ga
0.828853 0.249764 0.655350 Ga
0.828100 0.499759 0.155259 Ga
0.828140 0.499912 0.656171 Ga
0.828100 0.750241 0.155259 Ga
0.828140 0.750088 0.656171 Ga
0.919999 0.125000 0.342272 Ga
0.920062 0.125000 0.842097 Ga
0.918934 0.373480 0.340717 Ga
0.919149 0.373310 0.842159 Ga
0.918389 0.625000 0.340005 Ga
0.919621 0.625000 0.840263 Ga
0.918934 0.876520 0.340717 Ga
0.919149 0.876690 0.842159 Ga
0.794627 0.125000 0.396712 Ga
0.794898 0.125000 0.896611 Ga
0.794481 0.374928 0.397063 Ga
0.794313 0.374761 0.896896 Ga
0.794379 0.625000 0.397276 Ga
0.794343 0.625000 0.896880 Ga
0.794481 0.875072 0.397063 Ga
0.794313 0.875239 0.896896 Ga
0.954482 0.000544 0.102227 Ga
0.955381 0.000138 0.602306 Ga
0.954482 0.249456 0.102227 Ga
0.955381 0.249862 0.602306 Ga
0.953983 0.499818 0.102319 Ga
0.951727 0.497035 0.599590 Ga
0.953983 0.750182 0.102319 Ga
0.951727 0.752965 0.599590 Ga
0.248456 0.750049 0.132620 O
0.249880 0.747009 0.630084 O
0.247995 0.000576 0.128594 O
0.247806 0.998110 0.629124 O
0.247995 0.249424 0.128594 O
0.247806 0.251890 0.629124 O
0.248456 0.499951 0.132620 O
0.249880 0.502991 0.630084 O
1.000014 0.625000 0.368630 O
0.003308 0.625000 0.865151 O
0.000952 0.876786 0.371936 O
0.000488 0.878743 0.871943 O
0.001961 0.125000 0.371685 O
0.001711 0.125000 0.870777 O
0.000952 0.373214 0.371936 O
0.000488 0.371257 0.871943 O
0.086811 0.748752 0.284232 O
0.083318 0.757175 0.789985 O
0.087099 0.999321 0.282806 O
0.087110 0.999814 0.782350 O
0.087099 0.250679 0.282806 O
0.087110 0.250186 0.782350 O
0.086811 0.501248 0.284232 O
0.083318 0.492825 0.789985 O
0.163044 0.625000 0.219091 O
0.153879 0.625000 0.724646 O
0.163072 0.875766 0.215693 O
0.162080 0.870241 0.715557 O
0.163212 0.125000 0.219141 O
0.163129 0.125000 0.718053 O
0.163072 0.374234 0.215693 O
0.162080 0.379759 0.715557 O
0.170003 0.625000 0.448455 O
0.168530 0.625000 0.946528 O
0.167956 0.873344 0.444986 O
0.168466 0.875425 0.945366 O
0.168556 0.125000 0.447308 O
0.167759 0.125000 0.946284 O
0.167956 0.376656 0.444986 O
0.168466 0.374575 0.945366 O
0.081593 0.750542 0.059112 O
0.082676 0.743986 0.549306 O
0.081764 0.000305 0.054374 O
0.081854 0.999236 0.554181 O
0.081764 0.249695 0.054374 O
0.081854 0.250764 0.554181 O
0.081593 0.499458 0.059112 O
0.082676 0.506014 0.549306 O
0.499068 0.625000 0.127528 O
0.498362 0.625000 0.626691 O
0.499159 0.876633 0.127738 O
0.498146 0.874960 0.627035 O
0.498403 0.125000 0.128904 O
0.498123 0.125000 0.627911 O
0.499159 0.373367 0.127738 O
0.498146 0.375040 0.627035 O
0.251009 0.743270 0.384549 O
0.251527 0.750825 0.869503 O
0.252313 0.997856 0.372451 O
0.251650 0.000289 0.870695 O
0.252313 0.252144 0.372451 O
0.251650 0.249711 0.870695 O
0.251009 0.506730 0.384549 O
0.251527 0.499175 0.869503 O
0.341314 0.625000 0.265318 O
0.338922 0.625000 0.783649 O
0.336183 0.872954 0.282387 O
0.337794 0.876075 0.784392 O
0.336541 0.125000 0.282270 O
0.336734 0.125000 0.781973 O
0.336183 0.377046 0.282387 O
0.337794 0.373925 0.784392 O
0.415063 0.753196 0.215101 O
0.414503 0.749996 0.717164 O
0.412899 0.999932 0.217593 O
0.413526 0.000303 0.717977 O
0.412899 0.250068 0.217593 O
0.413526 0.249697 0.717977 O
0.415063 0.496804 0.215101 O
0.414503 0.500004 0.717164 O
0.417341 0.747706 0.443166 O
0.419839 0.750923 0.944889 O
0.418110 0.999678 0.445159 O
0.418639 0.000557 0.946030 O
0.418110 0.250322 0.445159 O
0.418639 0.249443 0.946030 O
0.417341 0.502294 0.443166 O
0.419839 0.499077 0.944889 O
0.331028 0.625000 0.046607 O
0.326609 0.625000 0.557991 O
0.330871 0.875862 0.053872 O
0.332720 0.875449 0.555761 O
0.331194 0.125000 0.054861 O
0.330739 0.125000 0.554223 O
0.330871 0.374138 0.053872 O
0.332720 0.374551 0.555761 O
0.747805 0.000092 0.127455 O
0.748227 0.999862 0.627763 O
0.747805 0.249908 0.127455 O
0.748227 0.250138 0.627763 O
0.747695 0.499991 0.127247 O
0.747807 0.500095 0.627594 O
0.747695 0.750009 0.127247 O
0.747807 0.749905 0.627594 O
0.502002 0.125000 0.371302 O
0.502658 0.125000 0.871941 O
0.502087 0.375117 0.371806 O
0.503170 0.374382 0.871311 O
0.503257 0.625000 0.370708 O
0.503149 0.625000 0.871110 O
0.502087 0.874883 0.371806 O
0.503170 0.875618 0.871311 O
0.587077 1.000202 0.282211 O
0.587083 0.000159 0.781357 O
0.587077 0.249798 0.282211 O
0.587083 0.249841 0.781357 O
0.587200 0.499635 0.281498 O
0.587057 0.499861 0.781118 O
0.587200 0.750365 0.281498 O
0.587057 0.750139 0.781118 O
0.663605 0.125000 0.218187 O
0.663516 0.125000 0.717338 O
0.663610 0.374842 0.217774 O
0.663459 0.374852 0.717370 O
0.663524 0.625000 0.217525 O
0.663376 0.625000 0.717294 O
0.663610 0.875158 0.217774 O
0.663459 0.875148 0.717370 O
0.668602 0.125000 0.445435 O
0.668306 0.125000 0.944678 O
0.668467 0.374967 0.444996 O
0.668385 0.374908 0.944547 O
0.668356 0.625000 0.444640 O
0.668256 0.625000 0.944413 O
0.668467 0.875033 0.444996 O
0.668385 0.875092 0.944547 O
0.582847 0.000624 0.054629 O
0.581947 0.000088 0.554046 O
0.582847 0.249376 0.054629 O
0.581947 0.249912 0.554046 O
0.582388 0.499666 0.054283 O
0.582139 0.499838 0.554083 O
0.582388 0.750334 0.054283 O
0.582139 0.750162 0.554083 O
0.998152 0.125000 0.128468 O
0.998689 0.125000 0.628422 O
0.997609 0.375023 0.128977 O
0.998686 0.376730 0.625700 O
0.997481 0.625000 0.126790 O
0.994171 0.625000 0.622240 O
0.997609 0.874977 0.128977 O
0.998686 0.873270 0.625700 O
0.752077 0.000029 0.371534 O
0.752064 0.000313 0.870973 O
0.752077 0.249971 0.371534 O
0.752064 0.249687 0.870973 O
0.752023 0.499969 0.371402 O
0.751956 0.499960 0.870954 O
0.752023 0.750031 0.371402 O
0.751956 0.750040 0.870954 O
0.836731 0.125000 0.281698 O
0.836953 0.125000 0.781145 O
0.836255 0.374665 0.281178 O
0.836623 0.375149 0.781886 O
0.836067 0.625000 0.281029 O
0.836720 0.625000 0.781965 O
0.836255 0.875335 0.281178 O
0.836623 0.874851 0.781886 O
0.912990 0.000228 0.217655 O
0.913468 0.999702 0.717068 O
0.912990 0.249772 0.217655 O
0.913468 0.250298 0.717068 O
0.912687 0.499719 0.217126 O
0.912879 0.499599 0.717692 O
0.912687 0.750281 0.217126 O
0.912879 0.750401 0.717692 O
0.918491 0.000197 0.445636 O
0.917676 0.000806 0.945498 O
0.918491 0.249803 0.445636 O
0.917676 0.249194 0.945498 O
0.917573 0.499373 0.442892 O
0.920249 0.500466 0.944069 O
0.917573 0.750627 0.442892 O
0.920249 0.749534 0.944069 O
0.831918 0.125000 0.053841 O
0.832169 0.125000 0.553621 O
0.832059 0.375046 0.053682 O
0.832336 0.375413 0.554014 O
0.832156 0.625000 0.053643 O
0.832317 0.625000 0.554204 O
0.832059 0.874954 0.053682 O
0.832336 0.874587 0.554014 O
