Ga129 O192                              
   1.00000000000000     
    24.9361379999999997    0.0000000000000000    0.0000000000000000
     0.0000000000000000   12.3494290000000007    0.0000000000000000
    -2.7833760000000001    0.0000000000000000   11.4316289999999992
   Ir Ga   O 
   1 128   192
Direct
  0.3390254753460926  0.4895028809022017  0.4007529569382939
  0.1655325355524552  0.4999413942835219  0.3297383229521529
  0.1688876815036483  0.5000851429295327  0.8536715517049691
  0.1668485702990954  0.7595875304572637  0.3328801791925380
  0.1697481923842672  0.7509879198250240  0.8467461208923543
  0.1705231567620502  0.0002734314867792  0.3404376091923904
  0.1709750026654546  0.9997807560460567  0.8399716131865497
  0.1662872001522651  0.2405964329287955  0.3302598094000493
  0.1695812998716774  0.2488066507550726  0.8468235618638231
  0.0760490128991043  0.3735052541705359  0.1541623459657827
  0.0762445214517781  0.3751520942395975  0.6606305914908132
  0.0763480785442962  0.6263919900756904  0.1547356767664562
  0.0769401791700956  0.6249355957614113  0.6602250183138908
  0.0768130711646974  0.8773594137075514  0.1515300392288203
  0.0794968711536236  0.8749848530357547  0.6548307115886917
  0.0764865010673149  0.1223590597835385  0.1511047425439860
  0.0794027013079991  0.1254042418025872  0.6547299469568875
  0.2074161244136329  0.3746925994371228  0.1076211204491301
  0.1994333308967706  0.3790431538195073  0.6174444030179949
  0.2076243067522361  0.6243637718574918  0.1075439950061909
  0.2018273854876398  0.6260425503072291  0.6172964480044963
  0.2058720005874780  0.8753047525479630  0.1015984005454987
  0.2049036126920217  0.8766291807455638  0.6000015483679014
  0.2059713017110194  0.1239538061056074  0.1011795901902825
  0.2048756580492629  0.1274388908150184  0.5987732072904636
  0.0427755904090385  0.5000303430499645  0.4016361422228250
  0.0425219952918130  0.5001179743782224  0.8994352872472346
  0.0437342383075209  0.7498421627304531  0.3990494650895916
  0.0436450797271537  0.7504885960852564  0.8967810595434077
  0.0448461465552548  0.0000873480603536  0.3958584777520159
  0.0441695147129593  0.9999858350750024  0.8923660430144138
  0.0436232715251405  0.2502906291560996  0.3989324551172628
  0.0433271783189904  0.2494020457827005  0.8966039557717376
  0.4252550539354688  0.3678625631708531  0.3322104427449825
  0.4235995000883832  0.3751129510950190  0.8444982049859924
  0.4231663141698795  0.6288617456595683  0.3360539079095624
  0.4230897442639813  0.6255293298258863  0.8455831489467850
  0.4217889441763275  0.8754385617870913  0.3437971118900024
  0.4219136216614401  0.8758143149674549  0.8438150522630357
  0.4222453112120431  0.1230714197738481  0.3429395497722318
  0.4223827947230573  0.1236174600013778  0.8436757892142833
  0.3325586785649108  0.4994468571043402  0.1550137128115972
  0.3300724973199058  0.5016349773428439  0.6714348641838030
  0.3298369473503945  0.7519018664165584  0.1565257556494337
  0.3318466419148186  0.7525561480175943  0.6628941100622538
  0.3301805845798848  0.0004199181775836  0.1549047966081470
  0.3293771408446311  0.0007305878855638  0.6545920937101830
  0.3301028157115376  0.2495552481420532  0.1581117758936814
  0.3329547476480979  0.2477978554531625  0.6651377371453219
  0.4585727947961903  0.4995601265090094  0.1008624628339748
  0.4584895827191092  0.4994813934110806  0.6100794605570875
  0.4561190833865130  0.7501972396032447  0.1010990479815366
  0.4562258297536601  0.7499849417969154  0.6006149081911517
  0.4559511448409874  0.9995917399295066  0.1025346151441859
  0.4558147724953661  0.9998810377193704  0.6022015814085782
  0.4567580187472950  0.2486656063047847  0.0991622006447490
  0.4568149893382975  0.2496539526280853  0.5992003401091848
  0.2585793383689566  0.3597879398036237  0.4581452690110349
  0.2939621522448274  0.3744856937714332  0.8980897072630061
  0.2611688288283833  0.6359828587614995  0.4486577647165604
  0.2939921392356360  0.6252724635713357  0.8997746187106710
  0.2959518500399529  0.8753723389254250  0.3948479457045753
  0.2945213708059281  0.8748428987690499  0.8960183236911378
  0.2957301235860952  0.1263363930221191  0.3941431553957290
  0.2944141590468740  0.1253023352802413  0.8964658942421537
  0.5804554547978060  0.1242796855359345  0.1568993031083433
  0.5802584354765256  0.1241308830984422  0.6576952783043224
  0.5808370812424214  0.3741040064152887  0.1571250806644728
  0.5810480560117189  0.3743427876971018  0.6576092809705311
  0.5806608175461380  0.6256096025510065  0.1573914003934000
  0.5807846940655934  0.6252130930802073  0.6577870235847963
  0.5801799173575846  0.8749671689726678  0.1572889145670731
  0.5800548641573395  0.8749741761285884  0.6576728355672645
  0.6712630893455871 -0.0002531354620577  0.3431456081278392
  0.6714343291812406 -0.0001921052398884  0.8431391253675554
  0.6714033450850676  0.2495441221391138  0.3430546241208050
  0.6715059845639760  0.2495269212616631  0.8433019598725765
  0.6713453707820961  0.4999618058421078  0.3430059131760528
  0.6716201297536022  0.5000486710099363  0.8433150385856337
  0.6712107741153815  0.7501382873185137  0.3433373586547095
  0.6714316559975323  0.7502939030749286  0.8433423726896990
  0.5460864714223700 -0.0010327451294686  0.3971786718039005
  0.5458142059963343 -0.0001556398339456  0.8972120901286231
  0.5469441579152057  0.2478865710396239  0.3977346796854704
  0.5463772954182364  0.2496321063961987  0.8971438792194986
  0.5472148535865532  0.4998689958916208  0.3978264228764334
  0.5471252611518012  0.5002887849075540  0.8982083696543909
  0.5458874450756362  0.7499999124090294  0.3975945785149501
  0.5460254669273578  0.7504755732884082  0.8973758549193400
  0.7052470487200424  0.1246945648603173  0.1021495783195935
  0.7052184309506602  0.1247216091110158  0.6022145806685878
  0.7052762177801001  0.3748167356505768  0.1020613446082647
  0.7052528261029151  0.3748182888328795  0.6018561027196040
  0.7052176847870140  0.6251414408168349  0.1022465501402729
  0.7052350503034046  0.6251482468218881  0.6020869882235043
  0.7051114726266897  0.8749721905369068  0.1023104647261672
  0.7052158736534115  0.8750881891306638  0.6023841097039314
  0.8288993841376038 -0.0001748212664948  0.1569384194293377
  0.8291096650006625 -0.0000982019389063  0.6559825320880267
  0.8288114165179121  0.2496114140109681  0.1568746346463391
  0.8288409512506195  0.2497474277928154  0.6564595954291939
  0.8287019620046520  0.4999917747130342  0.1569424740259470
  0.8286514991333730  0.5000237960582363  0.6569936509957243
  0.8288337344125871  0.7502185875058540  0.1569663167574631
  0.8288921895469742  0.7501895254268944  0.6564493462896965
  0.9201786654185558  0.1245546760156296  0.3423709690508125
  0.9199050474635309  0.1245824066248596  0.8415000635192895
  0.9194400773554523  0.3746626321261845  0.3425632149586778
  0.9195421825230029  0.3746988000370310  0.8424873609016441
  0.9195018248216585  0.6252399094974552  0.3426208097730282
  0.9195774170769220  0.6253803652281694  0.8425617872679194
  0.9202268394383332  0.8751018979905529  0.3425042991418181
  0.9200059682344943  0.8751839872582521  0.8414765607151430
  0.7949718769620475  0.1247957557962854  0.3974058947148407
  0.7952645089578521  0.1247301527632518  0.8975479370806069
  0.7948620943626358  0.3749115706193227  0.3979024753711654
  0.7950443853097178  0.3748179132016765  0.8979896783537894
  0.7948255462596024  0.6250406496895938  0.3978929801624485
  0.7950634415068346  0.6252070411885912  0.8980392899882508
  0.7949155462396214  0.8749304134537377  0.3973882033871225
  0.7953235795067987  0.8750583559833846  0.8975910095818582
  0.9534499797618288 -0.0002476317324812  0.1012286717425444
  0.9554588092684155 -0.0001298305587595  0.6021594187976318
  0.9533231292416415  0.2495567705599729  0.1018556519274030
  0.9540441191611274  0.2489747375379072  0.6022632595133742
  0.9532795504172042  0.5000465425656538  0.1025882892415773
  0.9529881602668313  0.5001430122861912  0.6023797862670212
  0.9535007751349407  0.7502765759504836  0.1020257685103034
  0.9543870533592324  0.7506756354215862  0.6025266162140356
  0.0013367392116802  0.3750664739558638  0.3730714744322349
  0.0012150807846155  0.3745067708549441  0.8721048217665501
  0.0014252944678562  0.6250761687861520  0.3732687233074232
  0.0012616918147017  0.6257168847015008  0.8722428973990300
  0.0023357976115850  0.8750475165262083  0.3716487601714332
  0.0016615309826195  0.8753373025539369  0.8698684469409730
  0.0022420307736722  0.1250268753684572  0.3715305384502738
  0.0014822748785819  0.1244218973628383  0.8698497325558167
  0.2496904116894846  0.4993420334095904  0.1314632318648533
  0.2460547310706830  0.5004301291177221  0.6283687687166472
  0.2490891344151734  0.7504473361834990  0.1282095724824235
  0.2477787032513314  0.7467902658313029  0.6181430064805723
  0.2488496763304813  0.9996417318475831  0.1288853633084571
  0.2479580506872049  0.0021899222708420  0.6255749194694624
  0.2489279055582295  0.2488645480369490  0.1275011788309726
  0.2479475708317815  0.2602888685403488  0.6123801704183515
  0.1626431310271174  0.3753723125261254  0.2188018425501076
  0.1604491409972398  0.3762995164147342  0.7273348514739076
  0.1631022600230931  0.6240802171501025  0.2189794770048726
  0.1612095235804704  0.6239824532880114  0.7258360338599291
  0.1617115550825098  0.8770805409793671  0.2130938739989760
  0.1640078026220809  0.8737909330469902  0.7163389898231783
  0.1615637384020976  0.1226312857731146  0.2122825022314253
  0.1642108803947849  0.1283157202439543  0.7154254965481254
  0.0861259928744819  0.5003985535833895  0.2871315815786522
  0.0858271193981055  0.5003178972736002  0.7863357201065684
  0.0865701377976225  0.7471165809533937  0.2835495513903523
  0.0868169943705035  0.7505127588428424  0.7833217099159862
  0.0864146842576280  0.0001278505171904  0.2789894006381671
  0.0879421412430865  0.0004461820674426  0.7800011058161906
  0.0860478533729353  0.2526435164517736  0.2826499550904199
  0.0865284116834477  0.2493395863857549  0.7833579471306418
  0.0806331341189028  0.4999576919631042  0.0569047275173496
  0.0843487615995789  0.4997214104972451  0.5571489969441524
  0.0811977140249822  0.7502330457918781  0.0544704984243532
  0.0839455805188235  0.7469536988348084  0.5549415485858682
  0.0809754950104872  0.9998761674873328  0.0498138480131291
  0.0828876332314595  0.0002197330927122  0.5529050512970500
  0.0809628610228931  0.2495301408773371  0.0541322887427169
  0.0836063891615068  0.2535454525402294  0.5550020087487411
  0.1787308327953267  0.3776971434253885  0.4489439276416350
  0.1689070260293571  0.3734175545829077  0.9514501340327793
  0.1812960511732442  0.6237265191149824  0.4484734952190427
  0.1689895706124014  0.6262778473796098  0.9514165920362102
  0.1668471560383960  0.8769602128299923  0.4438198638117236
  0.1689002810011741  0.8762190093859559  0.9452438270657562
  0.1666423759591140  0.1247718049372169  0.4430396827443354
  0.1690406712360301  0.1234261634198054  0.9447755374428664
  0.2571511584451074  0.4969591753089507  0.3759676868068172
  0.2510125439564282  0.4999033824543290  0.8702014104027667
  0.2479933650585357  0.7573688020678665  0.3606857248152421
  0.2512011328895031  0.7496760861062546  0.8663104134372882
  0.2524914436783431  0.0006980597162668  0.3706953938277782
  0.2520143712724671  0.0000394269394434  0.8687076945635006
  0.2475230798222628  0.2441687332231169  0.3604487886153491
  0.2510359594849906  0.2503026855385418  0.8630335075469358
  0.4993677572026703  0.3730563856445577  0.1264703236184250
  0.4992636448500993  0.3744116485315455  0.6285398632989699
  0.4991103698738212  0.6262693500126603  0.1269397676016973
  0.4987710700000565  0.6250739090067698  0.6282356712725116
  0.4982501355558743  0.8748490737491150  0.1276528267534776
  0.4980640352256295  0.8750737478385642  0.6285815058596791
  0.4986599004859602  0.1239056158833841  0.1265460301588401
  0.4983411247828362  0.1243908319813244  0.6283651646956715
  0.4179149255967378  0.4986737460557255  0.2168677381069771
  0.4130104050603199  0.5002046319852477  0.7184370163386800
  0.4127584239895078  0.7496428288111661  0.2149695875635043
  0.4133020028333610  0.7478255820614146  0.7160384862420428
  0.4132195273248452  0.9995680718388242  0.2170778403679859
  0.4123454658312530  0.0008083210433912  0.7160621170368588
  0.4139327531056598  0.2474435152962841  0.2132161455623631
  0.4136878260962452  0.2532630778943230  0.7144833137643213
  0.3420711353516455  0.3813283447243553  0.2838416045910869
  0.3360233829730733  0.3744371375947064  0.7805899790643487
  0.3412565624665373  0.6085518837402026  0.2898611550076103
  0.3364079360191112  0.6254486331827753  0.7842924242780693
  0.3374381873690520  0.8732443355501291  0.2804942335522549
  0.3366457932857206  0.8746813550895460  0.7808187107649784
  0.3375769862540657  0.1263314480164049  0.2805687213231748
  0.3366525465677138  0.1263870752594478  0.7809854285942921
  0.3317091538236788  0.3737869185438377  0.0533062946915872
  0.3296251819187044  0.3877194737377724  0.5464242581152942
  0.3315993148114305  0.6260904668350920  0.0555175898912953
  0.3284058835913422  0.6196484591732816  0.5536148037512121
  0.3315056311267199  0.8751640480749650  0.0523507475017855
  0.3305230087436065  0.8733948023174304  0.5533169894876386
  0.3312757663966455  0.1256422191718962  0.0526110859907715
  0.3301289045503512  0.1296721829884020  0.5531510428286237
  0.4176195143344293  0.4974513744161101  0.4509699311897656
  0.4185416438245747  0.4996358494678734  0.9449968043404079
  0.4192003765245431  0.7493748391053908  0.4438200806390524
  0.4180205817549571  0.7502097213200715  0.9442978166263134
  0.4171652125358233  0.9997314122478884  0.4454996088980544
  0.4178644274346854  0.0000293903564901  0.9451005138284421
  0.4201160783025029  0.2497086460824278  0.4423950561121132
  0.4183311891957800  0.2499349137947381  0.9425852658453170
  0.7480836827126226 -0.0002341383744204  0.1280145826683087
  0.7481480605639547 -0.0000900495603619  0.6278326529881475
  0.7480331957867918  0.2497675691125630  0.1278451337906922
  0.7479991510146637  0.2498231103438434  0.6277405831369103
  0.7479609949824146  0.4999994367186583  0.1278840257131654
  0.7479073397241964  0.4999794501298386  0.6278484532933836
  0.7480375185261363  0.7500821160687170  0.1279308719435225
  0.7480380303028004  0.7500566703279407  0.6278770330671681
  0.5027389064129494  0.1239144405927929  0.3706986767212936
  0.5023819921282053  0.1250905797829556  0.8706459612708809
  0.5041310087937440  0.3743042841993142  0.3725870203820423
  0.5033349381055089  0.3754934842422532  0.8711207620843077
  0.5027737910763672  0.6238660122447622  0.3729260892232825
  0.5029710392080755  0.6246606419569405  0.8713024452601824
  0.5021922958298701  0.8746015001377936  0.3708795044179981
  0.5020621156364962  0.8750138851443034  0.8709210210688096
  0.5870278318973613 -0.0005606004430860  0.2811861795054623
  0.5869007486636614 -0.0002234021741132  0.7815735925194954
  0.5873014370005191  0.2491438564095762  0.2811013592485181
  0.5872442697946751  0.2496103343258997  0.7813765532924588
  0.5871939554555842  0.4999204788166152  0.2810172111942073
  0.5873109013938312  0.5000921817338181  0.7813411177146981
  0.5868876294843428  0.7498678656486271  0.2817184889012839
  0.5869982606762665  0.7501594167930513  0.7815751432814525
  0.6635947637081747  0.1244867402712197  0.2177827147618508
  0.6635682056480984  0.1244373593699097  0.7179672432394572
  0.6636527495334971  0.3747342578992632  0.2178227236061849
  0.6637816588914502  0.3747105269239569  0.7179681520609664
  0.6635809105778968  0.6251574893559195  0.2179683941674630
  0.6637005631210383  0.6252932008935602  0.7180580910845678
  0.6634551526220125  0.8747211813233284  0.2179680545777176
  0.6634575452101815  0.8749865096451444  0.7179396860107207
  0.6678395062474305  0.1247728130630241  0.4452577081380126
  0.6680665826804383  0.1247224964668612  0.9452276631480009
  0.6677757212701187  0.3748257915841233  0.4450200988688382
  0.6680339537846904  0.3749170517079393  0.9450722780198948
  0.6677879585644251  0.6249052415603986  0.4452471167601365
  0.6680317238187158  0.6250318297723552  0.9452198252458256
  0.6678618195474720  0.8749534907123582  0.4454471649893297
  0.6680252241086251  0.8750452259575303  0.9453075587576275
  0.5819115406411357 -0.0005165089746491  0.0540148151028710
  0.5816089734468212 -0.0006169277936323  0.5544418285144008
  0.5823315873228762  0.2491926493604818  0.0540007514968779
  0.5820367064231168  0.2490525781120373  0.5549254435748420
  0.5822279630895962  0.5000238289394706  0.0550756477707906
  0.5821726392547401  0.4998876852239095  0.5550871767415665
  0.5821000506720151  0.7504450902184980  0.0542277508208498
  0.5815192774965097  0.7499926226624557  0.5546598004058674
  0.9969239975748935  0.1247799083796715  0.1275145557731677
  0.9987402095118665  0.1254989386974003  0.6271912758174940
  0.9966338284061238  0.3748636770091612  0.1291182994808770
  0.9968653066256624  0.3753827073756140  0.6280871772629232
  0.9968079232320826  0.6250206672809034  0.1293307354217871
  0.9972814540620953  0.6244030597720130  0.6280348613963170
  0.9971606214056409  0.8749921076186753  0.1277930257261699
  0.9989010575820964  0.8744396271290682  0.6273607519447153
  0.7521107740891216 -0.0001055803917970  0.3718932782767521
  0.7523831506126388 -0.0001409659579309  0.8720421704286333
  0.7521588779988991  0.2498265780722645  0.3720308184518418
  0.7523639556013015  0.2497053128333609  0.8721879754594639
  0.7521016924099789  0.4999458237609521  0.3720847922241544
  0.7523815175407996  0.5000215542984795  0.8723176033580938
  0.7520569732435677  0.7499863485029814  0.3720499278356725
  0.7523414127652528  0.7502122094821482  0.8722067101571083
  0.8367671242158825  0.1245863096768225  0.2820465794418562
  0.8367688783937413  0.1246872744179922  0.7814020659864876
  0.8364950104983656  0.3747425035452090  0.2821871809479223
  0.8365914620354507  0.3748173219174751  0.7820139145069288
  0.8365045436840339  0.6252122795469782  0.2822224517119883
  0.8366084517653017  0.6252502872659701  0.7820589504312918
  0.8367979145508511  0.8750017011053239  0.2821627670937695
  0.8368200212502914  0.8750984345170376  0.7814064085714737
  0.9132531112652041 -0.0001948759081200  0.2183434986029972
  0.9136511350889117 -0.0001284946949996  0.7170713940004626
  0.9130437235807981  0.2497675432517941  0.2186817391691411
  0.9131610158094676  0.2497805883562329  0.7180097843288701
  0.9128751106512537  0.4999784836954460  0.2190686051362332
  0.9128797855200397  0.5000802663527614  0.7189001728450380
  0.9131359482137704  0.7500568378559269  0.2187705698425959
  0.9132874569727393  0.7500863030856093  0.7179922110002617
  0.9190101856790747 -0.0001400962072834  0.4454026557067805
  0.9179265571921168 -0.0001713856695389  0.9442234818445101
  0.9184157166915858  0.2494350491553453  0.4452513486560464
  0.9180423820337181  0.2494600783686495  0.9447378486871824
  0.9179673719872475  0.4999709566718581  0.4452757129207887
  0.9182431189548281  0.5000331112788449  0.9453204111763335
  0.9186107334980418  0.7503346022657824  0.4455409187544741
  0.9181083415573035  0.7505048002162519  0.9449166300409629
  0.8323936899944402  0.1248146028219385  0.0546927329178646
  0.8322617735067365  0.1250163316599224  0.5542420868939950
  0.8323819555084350  0.3748979033247641  0.0549800193600442
  0.8322213627052765  0.3750774851292437  0.5548007557433163
  0.8324044785348588  0.6250155413036852  0.0550025139777417
  0.8322281816140709  0.6248826821694498  0.5547765286722323
  0.8324627691231719  0.8749583619810792  0.0547242968924839
  0.8322502707263673  0.8748554557269049  0.5542017196614213
 
  0.00000000E+00  0.00000000E+00  0.00000000E+00
  0.00000000E+00  0.00000000E+00  0.00000000E+00
  0.00000000E+00  0.00000000E+00  0.00000000E+00
  0.00000000E+00  0.00000000E+00  0.00000000E+00
  0.00000000E+00  0.00000000E+00  0.00000000E+00
  0.00000000E+00  0.00000000E+00  0.00000000E+00
  0.00000000E+00  0.00000000E+00  0.00000000E+00
  0.00000000E+00  0.00000000E+00  0.00000000E+00
  0.00000000E+00  0.00000000E+00  0.00000000E+00
  0.00000000E+00  0.00000000E+00  0.00000000E+00
  0.00000000E+00  0.00000000E+00  0.00000000E+00
  0.00000000E+00  0.00000000E+00  0.00000000E+00
  0.00000000E+00  0.00000000E+00  0.00000000E+00
  0.00000000E+00  0.00000000E+00  0.00000000E+00
  0.00000000E+00  0.00000000E+00  0.00000000E+00
  0.00000000E+00  0.00000000E+00  0.00000000E+00
  0.00000000E+00  0.00000000E+00  0.00000000E+00
  0.00000000E+00  0.00000000E+00  0.00000000E+00
  0.00000000E+00  0.00000000E+00  0.00000000E+00
  0.00000000E+00  0.00000000E+00  0.00000000E+00
  0.00000000E+00  0.00000000E+00  0.00000000E+00
  0.00000000E+00  0.00000000E+00  0.00000000E+00
  0.00000000E+00  0.00000000E+00  0.00000000E+00
  0.00000000E+00  0.00000000E+00  0.00000000E+00
  0.00000000E+00  0.00000000E+00  0.00000000E+00
  0.00000000E+00  0.00000000E+00  0.00000000E+00
  0.00000000E+00  0.00000000E+00  0.00000000E+00
  0.00000000E+00  0.00000000E+00  0.00000000E+00
  0.00000000E+00  0.00000000E+00  0.00000000E+00
  0.00000000E+00  0.00000000E+00  0.00000000E+00
  0.00000000E+00  0.00000000E+00  0.00000000E+00
  0.00000000E+00  0.00000000E+00  0.00000000E+00
  0.00000000E+00  0.00000000E+00  0.00000000E+00
  0.00000000E+00  0.00000000E+00  0.00000000E+00
  0.00000000E+00  0.00000000E+00  0.00000000E+00
  0.00000000E+00  0.00000000E+00  0.00000000E+00
  0.00000000E+00  0.00000000E+00  0.00000000E+00
  0.00000000E+00  0.00000000E+00  0.00000000E+00
  0.00000000E+00  0.00000000E+00  0.00000000E+00
  0.00000000E+00  0.00000000E+00  0.00000000E+00
  0.00000000E+00  0.00000000E+00  0.00000000E+00
  0.00000000E+00  0.00000000E+00  0.00000000E+00
  0.00000000E+00  0.00000000E+00  0.00000000E+00
  0.00000000E+00  0.00000000E+00  0.00000000E+00
  0.00000000E+00  0.00000000E+00  0.00000000E+00
  0.00000000E+00  0.00000000E+00  0.00000000E+00
  0.00000000E+00  0.00000000E+00  0.00000000E+00
  0.00000000E+00  0.00000000E+00  0.00000000E+00
  0.00000000E+00  0.00000000E+00  0.00000000E+00
  0.00000000E+00  0.00000000E+00  0.00000000E+00
  0.00000000E+00  0.00000000E+00  0.00000000E+00
  0.00000000E+00  0.00000000E+00  0.00000000E+00
  0.00000000E+00  0.00000000E+00  0.00000000E+00
  0.00000000E+00  0.00000000E+00  0.00000000E+00
  0.00000000E+00  0.00000000E+00  0.00000000E+00
  0.00000000E+00  0.00000000E+00  0.00000000E+00
  0.00000000E+00  0.00000000E+00  0.00000000E+00
  0.00000000E+00  0.00000000E+00  0.00000000E+00
  0.00000000E+00  0.00000000E+00  0.00000000E+00
  0.00000000E+00  0.00000000E+00  0.00000000E+00
  0.00000000E+00  0.00000000E+00  0.00000000E+00
  0.00000000E+00  0.00000000E+00  0.00000000E+00
  0.00000000E+00  0.00000000E+00  0.00000000E+00
  0.00000000E+00  0.00000000E+00  0.00000000E+00
  0.00000000E+00  0.00000000E+00  0.00000000E+00
  0.00000000E+00  0.00000000E+00  0.00000000E+00
  0.00000000E+00  0.00000000E+00  0.00000000E+00
  0.00000000E+00  0.00000000E+00  0.00000000E+00
  0.00000000E+00  0.00000000E+00  0.00000000E+00
  0.00000000E+00  0.00000000E+00  0.00000000E+00
  0.00000000E+00  0.00000000E+00  0.00000000E+00
  0.00000000E+00  0.00000000E+00  0.00000000E+00
  0.00000000E+00  0.00000000E+00  0.00000000E+00
  0.00000000E+00  0.00000000E+00  0.00000000E+00
  0.00000000E+00  0.00000000E+00  0.00000000E+00
  0.00000000E+00  0.00000000E+00  0.00000000E+00
  0.00000000E+00  0.00000000E+00  0.00000000E+00
  0.00000000E+00  0.00000000E+00  0.00000000E+00
  0.00000000E+00  0.00000000E+00  0.00000000E+00
  0.00000000E+00  0.00000000E+00  0.00000000E+00
  0.00000000E+00  0.00000000E+00  0.00000000E+00
  0.00000000E+00  0.00000000E+00  0.00000000E+00
  0.00000000E+00  0.00000000E+00  0.00000000E+00
  0.00000000E+00  0.00000000E+00  0.00000000E+00
  0.00000000E+00  0.00000000E+00  0.00000000E+00
  0.00000000E+00  0.00000000E+00  0.00000000E+00
  0.00000000E+00  0.00000000E+00  0.00000000E+00
  0.00000000E+00  0.00000000E+00  0.00000000E+00
  0.00000000E+00  0.00000000E+00  0.00000000E+00
  0.00000000E+00  0.00000000E+00  0.00000000E+00
  0.00000000E+00  0.00000000E+00  0.00000000E+00
  0.00000000E+00  0.00000000E+00  0.00000000E+00
  0.00000000E+00  0.00000000E+00  0.00000000E+00
  0.00000000E+00  0.00000000E+00  0.00000000E+00
  0.00000000E+00  0.00000000E+00  0.00000000E+00
  0.00000000E+00  0.00000000E+00  0.00000000E+00
  0.00000000E+00  0.00000000E+00  0.00000000E+00
  0.00000000E+00  0.00000000E+00  0.00000000E+00
  0.00000000E+00  0.00000000E+00  0.00000000E+00
  0.00000000E+00  0.00000000E+00  0.00000000E+00
  0.00000000E+00  0.00000000E+00  0.00000000E+00
  0.00000000E+00  0.00000000E+00  0.00000000E+00
  0.00000000E+00  0.00000000E+00  0.00000000E+00
  0.00000000E+00  0.00000000E+00  0.00000000E+00
  0.00000000E+00  0.00000000E+00  0.00000000E+00
  0.00000000E+00  0.00000000E+00  0.00000000E+00
  0.00000000E+00  0.00000000E+00  0.00000000E+00
  0.00000000E+00  0.00000000E+00  0.00000000E+00
  0.00000000E+00  0.00000000E+00  0.00000000E+00
  0.00000000E+00  0.00000000E+00  0.00000000E+00
  0.00000000E+00  0.00000000E+00  0.00000000E+00
  0.00000000E+00  0.00000000E+00  0.00000000E+00
  0.00000000E+00  0.00000000E+00  0.00000000E+00
  0.00000000E+00  0.00000000E+00  0.00000000E+00
  0.00000000E+00  0.00000000E+00  0.00000000E+00
  0.00000000E+00  0.00000000E+00  0.00000000E+00
  0.00000000E+00  0.00000000E+00  0.00000000E+00
  0.00000000E+00  0.00000000E+00  0.00000000E+00
  0.00000000E+00  0.00000000E+00  0.00000000E+00
  0.00000000E+00  0.00000000E+00  0.00000000E+00
  0.00000000E+00  0.00000000E+00  0.00000000E+00
  0.00000000E+00  0.00000000E+00  0.00000000E+00
  0.00000000E+00  0.00000000E+00  0.00000000E+00
  0.00000000E+00  0.00000000E+00  0.00000000E+00
  0.00000000E+00  0.00000000E+00  0.00000000E+00
  0.00000000E+00  0.00000000E+00  0.00000000E+00
  0.00000000E+00  0.00000000E+00  0.00000000E+00
  0.00000000E+00  0.00000000E+00  0.00000000E+00
  0.00000000E+00  0.00000000E+00  0.00000000E+00
  0.00000000E+00  0.00000000E+00  0.00000000E+00
  0.00000000E+00  0.00000000E+00  0.00000000E+00
  0.00000000E+00  0.00000000E+00  0.00000000E+00
  0.00000000E+00  0.00000000E+00  0.00000000E+00
  0.00000000E+00  0.00000000E+00  0.00000000E+00
  0.00000000E+00  0.00000000E+00  0.00000000E+00
  0.00000000E+00  0.00000000E+00  0.00000000E+00
  0.00000000E+00  0.00000000E+00  0.00000000E+00
  0.00000000E+00  0.00000000E+00  0.00000000E+00
  0.00000000E+00  0.00000000E+00  0.00000000E+00
  0.00000000E+00  0.00000000E+00  0.00000000E+00
  0.00000000E+00  0.00000000E+00  0.00000000E+00
  0.00000000E+00  0.00000000E+00  0.00000000E+00
  0.00000000E+00  0.00000000E+00  0.00000000E+00
  0.00000000E+00  0.00000000E+00  0.00000000E+00
  0.00000000E+00  0.00000000E+00  0.00000000E+00
  0.00000000E+00  0.00000000E+00  0.00000000E+00
  0.00000000E+00  0.00000000E+00  0.00000000E+00
  0.00000000E+00  0.00000000E+00  0.00000000E+00
  0.00000000E+00  0.00000000E+00  0.00000000E+00
  0.00000000E+00  0.00000000E+00  0.00000000E+00
  0.00000000E+00  0.00000000E+00  0.00000000E+00
  0.00000000E+00  0.00000000E+00  0.00000000E+00
  0.00000000E+00  0.00000000E+00  0.00000000E+00
  0.00000000E+00  0.00000000E+00  0.00000000E+00
  0.00000000E+00  0.00000000E+00  0.00000000E+00
  0.00000000E+00  0.00000000E+00  0.00000000E+00
  0.00000000E+00  0.00000000E+00  0.00000000E+00
  0.00000000E+00  0.00000000E+00  0.00000000E+00
  0.00000000E+00  0.00000000E+00  0.00000000E+00
  0.00000000E+00  0.00000000E+00  0.00000000E+00
  0.00000000E+00  0.00000000E+00  0.00000000E+00
  0.00000000E+00  0.00000000E+00  0.00000000E+00
  0.00000000E+00  0.00000000E+00  0.00000000E+00
  0.00000000E+00  0.00000000E+00  0.00000000E+00
  0.00000000E+00  0.00000000E+00  0.00000000E+00
  0.00000000E+00  0.00000000E+00  0.00000000E+00
  0.00000000E+00  0.00000000E+00  0.00000000E+00
  0.00000000E+00  0.00000000E+00  0.00000000E+00
  0.00000000E+00  0.00000000E+00  0.00000000E+00
  0.00000000E+00  0.00000000E+00  0.00000000E+00
  0.00000000E+00  0.00000000E+00  0.00000000E+00
  0.00000000E+00  0.00000000E+00  0.00000000E+00
  0.00000000E+00  0.00000000E+00  0.00000000E+00
  0.00000000E+00  0.00000000E+00  0.00000000E+00
  0.00000000E+00  0.00000000E+00  0.00000000E+00
  0.00000000E+00  0.00000000E+00  0.00000000E+00
  0.00000000E+00  0.00000000E+00  0.00000000E+00
  0.00000000E+00  0.00000000E+00  0.00000000E+00
  0.00000000E+00  0.00000000E+00  0.00000000E+00
  0.00000000E+00  0.00000000E+00  0.00000000E+00
  0.00000000E+00  0.00000000E+00  0.00000000E+00
  0.00000000E+00  0.00000000E+00  0.00000000E+00
  0.00000000E+00  0.00000000E+00  0.00000000E+00
  0.00000000E+00  0.00000000E+00  0.00000000E+00
  0.00000000E+00  0.00000000E+00  0.00000000E+00
  0.00000000E+00  0.00000000E+00  0.00000000E+00
  0.00000000E+00  0.00000000E+00  0.00000000E+00
  0.00000000E+00  0.00000000E+00  0.00000000E+00
  0.00000000E+00  0.00000000E+00  0.00000000E+00
  0.00000000E+00  0.00000000E+00  0.00000000E+00
  0.00000000E+00  0.00000000E+00  0.00000000E+00
  0.00000000E+00  0.00000000E+00  0.00000000E+00
  0.00000000E+00  0.00000000E+00  0.00000000E+00
  0.00000000E+00  0.00000000E+00  0.00000000E+00
  0.00000000E+00  0.00000000E+00  0.00000000E+00
  0.00000000E+00  0.00000000E+00  0.00000000E+00
  0.00000000E+00  0.00000000E+00  0.00000000E+00
  0.00000000E+00  0.00000000E+00  0.00000000E+00
  0.00000000E+00  0.00000000E+00  0.00000000E+00
  0.00000000E+00  0.00000000E+00  0.00000000E+00
  0.00000000E+00  0.00000000E+00  0.00000000E+00
  0.00000000E+00  0.00000000E+00  0.00000000E+00
  0.00000000E+00  0.00000000E+00  0.00000000E+00
  0.00000000E+00  0.00000000E+00  0.00000000E+00
  0.00000000E+00  0.00000000E+00  0.00000000E+00
  0.00000000E+00  0.00000000E+00  0.00000000E+00