Cation interstitial
1.00000000000000
  24.9361379999999997   0.0000000000000000   0.0000000000000000
   0.0000000000000000  12.3494290000000007   0.0000000000000000
  -2.7833760000000001   0.0000000000000000  11.4316289999999992
Ir   Ga   O
1  128  192  
Direct
  0.3808110000000000  0.6244010000000000  0.4713150000000000  
  0.0774910000000000  0.6249930000000000  0.1552560000000000  
  0.0781770000000000  0.6250010000000000  0.6568550000000000  
  0.0775090000000000  0.8760890000000000  0.1548280000000000  
  0.0783510000000000  0.8751300000000000  0.6565720000000000  
  0.0779010000000000  0.1249930000000000  0.1560200000000000  
  0.0785530000000000  0.1250000000000000  0.6565170000000000  
  0.0775180000000000  0.3739030000000000  0.1548500000000000  
  0.0783560000000000  0.3748750000000000  0.6566050000000000  
  0.1663040000000000  0.7526870000000000  0.3412790000000000  
  0.1698570000000000  0.7503620000000000  0.8416390000000000  
  0.1692740000000000  0.0007120000000000  0.3414710000000000  
  0.1699930000000000  0.0001620000000000  0.8424990000000000  
  0.1692770000000000  0.2491490000000000  0.3415010000000000  
  0.1699970000000000  0.2497170000000000  0.8425310000000000  
  0.1663100000000000  0.4971680000000000  0.3413200000000000  
  0.1698660000000000  0.4995130000000000  0.8416810000000000  
  0.0433880000000000  0.7502100000000000  0.3980410000000000  
  0.0442010000000000  0.7500830000000001  0.8968320000000000  
  0.0442900000000000  0.0002400000000000  0.3974090000000000  
  0.0440980000000000  0.0002080000000000  0.8964730000000000  
  0.0442910000000000  0.2498100000000000  0.3974240000000000  
  0.0440970000000000  0.2497800000000000  0.8964880000000000  
  0.0433880000000000  0.4998320000000000  0.3980560000000000  
  0.0442040000000000  0.4999010000000000  0.8968429999999999  
  0.2024140000000000  0.6249120000000000  0.1003010000000000  
  0.2033640000000000  0.6249330000000000  0.6022270000000000  
  0.2037590000000000  0.8751630000000000  0.1028930000000000  
  0.2034400000000000  0.8760970000000000  0.6015810000000000  
  0.2047600000000000  0.1249140000000000  0.1029280000000000  
  0.2044260000000000  0.1249050000000000  0.6021520000000000  
  0.2037950000000000  0.3746870000000000  0.1029620000000000  
  0.2034460000000000  0.3737290000000000  0.6016400000000000  
  0.3270720000000000  0.7510289999999999  0.1568750000000000  
  0.3265440000000000  0.7534800000000000  0.6615600000000000  
  0.3285240000000000  0.0006410000000000  0.1555950000000000  
  0.3285010000000000  0.0005860000000000  0.6556780000000000  
  0.3285330000000000  0.2490410000000000  0.1556790000000000  
  0.3284900000000000  0.2490730000000000  0.6557460000000001  
  0.3271140000000000  0.4987500000000000  0.1570560000000000  
  0.3265190000000000  0.4961960000000000  0.6617130000000000  
  0.4315540000000000  0.6249710000000001  0.3129600000000000  
  0.4207420000000000  0.6248470000000000  0.8388050000000000  
  0.4211500000000000  0.8779650000000000  0.3407330000000000  
  0.4205760000000000  0.8763990000000000  0.8419500000000000  
  0.4204000000000000  0.1246380000000000  0.3431860000000000  
  0.4204110000000000  0.1248480000000000  0.8428520000000000  
  0.4211330000000000  0.3714050000000000  0.3409660000000000  
  0.4205480000000000  0.3733290000000000  0.8421280000000000  
  0.2791310000000000  0.6249060000000000  0.3797940000000000  
  0.2944940000000000  0.6248920000000000  0.8988040000000000  
  0.2941440000000000  0.8763570000000001  0.3972730000000000  
  0.2941040000000000  0.8751220000000000  0.8980690000000000  
  0.2940310000000000  0.1248690000000000  0.3963770000000000  
  0.2943810000000000  0.1248780000000000  0.8961710000000001  
  0.2941440000000000  0.3734090000000000  0.3973950000000000  
  0.2941100000000000  0.3746480000000000  0.8982500000000000  
  0.4562190000000000  0.7515320000000000  0.0956410000000000  
  0.4611670000000000  0.7521340000000000  0.6122900000000000  
  0.4550260000000000  0.0004480000000000  0.1019330000000000  
  0.4551100000000000  0.0005460000000000  0.6027420000000000  
  0.4550220000000000  0.2493120000000000  0.1019980000000000  
  0.4550930000000000  0.2484150000000000  0.6028160000000000  
  0.4561720000000000  0.4982790000000000  0.0958040000000000  
  0.4611880000000000  0.4967820000000000  0.6126010000000000  
  0.5794100000000000  0.1248450000000000  0.1568730000000000  
  0.5800660000000000  0.1245860000000000  0.6577840000000000  
  0.5799190000000000  0.3739760000000000  0.1572330000000000  
  0.5816080000000000  0.3725260000000000  0.6592540000000000  
  0.5799320000000000  0.6248350000000000  0.1581440000000000  
  0.5823840000000000  0.6245410000000000  0.6595810000000000  
  0.5799460000000000  0.8757010000000000  0.1571810000000000  
  0.5816120000000000  0.8765970000000000  0.6592290000000000  
  0.6709340000000000  0.9999290000000000  0.3433790000000000  
  0.6716839999999999  0.0002000000000000  0.8443500000000000  
  0.6709240000000000  0.2496530000000000  0.3433860000000000  
  0.6716839999999999  0.2491910000000000  0.8443850000000001  
  0.6716710000000000  0.4996370000000000  0.3427680000000000  
  0.6719030000000000  0.4992780000000000  0.8447150000000000  
  0.6716870000000000  0.7499240000000000  0.3427460000000000  
  0.6719020000000000  0.7500920000000000  0.8446830000000000  
  0.5450100000000000  0.0002050000000000  0.3975060000000000  
  0.5447000000000000  0.9998170000000000  0.8964020000000000  
  0.5449820000000000  0.2488800000000000  0.3975140000000000  
  0.5446850000000000  0.2498910000000000  0.8964190000000000  
  0.5485480000000000  0.4961450000000000  0.3998050000000000  
  0.5456610000000000  0.4999220000000000  0.8974940000000000  
  0.5486050000000000  0.7529130000000001  0.3998210000000000  
  0.5456690000000000  0.7497620000000000  0.8974330000000000  
  0.7052790000000000  0.1247890000000000  0.1031920000000000  
  0.7051420000000000  0.1247630000000000  0.6024240000000000  
  0.7055420000000000  0.3745060000000000  0.1028590000000000  
  0.7054900000000000  0.3746170000000000  0.6021580000000000  
  0.7055470000000000  0.6247700000000000  0.1026450000000000  
  0.7056760000000000  0.6247549999999999  0.6017850000000000  
  0.7055520000000000  0.8750550000000000  0.1028220000000000  
  0.7054920000000000  0.8749020000000000  0.6021360000000000  
  0.8292180000000000  0.9999860000000000  0.1572770000000000  
  0.8292070000000000  0.9999470000000000  0.6568480000000000  
  0.8292220000000000  0.2496910000000000  0.1572770000000000  
  0.8292000000000000  0.2497470000000000  0.6568470000000000  
  0.8292180000000000  0.4997130000000000  0.1571290000000000  
  0.8292929999999999  0.4997410000000000  0.6570560000000000  
  0.8292160000000000  0.7499490000000000  0.1571250000000000  
  0.8292960000000000  0.7499320000000000  0.6570570000000000  
  0.9202960000000000  0.1249830000000000  0.3430170000000000  
  0.9202760000000000  0.1249570000000000  0.8423810000000000  
  0.9201790000000000  0.3747460000000000  0.3428320000000000  
  0.9203480000000001  0.3748600000000000  0.8424600000000000  
  0.9200460000000000  0.6249760000000000  0.3427380000000000  
  0.9203860000000000  0.6249460000000000  0.8425290000000000  
  0.9201790000000000  0.8752120000000000  0.3428300000000000  
  0.9203460000000000  0.8750410000000000  0.8424640000000000  
  0.7947890000000000  0.1248550000000000  0.3974130000000000  
  0.7953510000000000  0.1247600000000000  0.8977080000000000  
  0.7950040000000000  0.3745840000000000  0.3974950000000000  
  0.7953310000000000  0.3746000000000000  0.8976280000000000  
  0.7952070000000000  0.6248440000000000  0.3976380000000000  
  0.7953550000000000  0.6247460000000000  0.8976300000000000  
  0.7950070000000000  0.8751230000000000  0.3974980000000000  
  0.7953220000000000  0.8749080000000000  0.8976170000000000  
  0.9540780000000000  0.0001710000000000  0.1019510000000000  
  0.9546060000000000  0.0000860000000000  0.6022040000000000  
  0.9540790000000000  0.2498180000000000  0.1019540000000000  
  0.9546050000000000  0.2499160000000000  0.6022040000000000  
  0.9541030000000000  0.4998990000000000  0.1019570000000000  
  0.9544740000000000  0.4999190000000000  0.6022020000000000  
  0.9541030000000000  0.7500790000000001  0.1019570000000000  
  0.9544760000000000  0.7500770000000000  0.6022010000000000  
  0.2467710000000000  0.7491110000000000  0.1291550000000000  
  0.2464870000000000  0.7504160000000000  0.6275579999999999  
  0.2479530000000000  0.9993040000000000  0.1293140000000000  
  0.2477440000000000  0.9997390000000000  0.6274490000000000  
  0.2479660000000000  0.2505130000000000  0.1293760000000000  
  0.2477390000000000  0.2500450000000000  0.6275250000000000  
  0.2468010000000000  0.5007460000000000  0.1292290000000000  
  0.2464720000000000  0.4994020000000000  0.6276180000000000  
  0.0011580000000000  0.6250120000000000  0.3717400000000000  
  0.0016500000000000  0.6249830000000000  0.8713760000000000  
  0.0013870000000000  0.8754980000000000  0.3717500000000000  
  0.0015870000000000  0.8750400000000000  0.8712960000000000  
  0.0015180000000000  0.1250220000000000  0.3719110000000000  
  0.0013950000000000  0.1249910000000000  0.8707730000000000  
  0.0013880000000000  0.3745360000000000  0.3717590000000000  
  0.0015880000000000  0.3749370000000000  0.8712960000000000  
  0.0850480000000000  0.7498880000000000  0.2816620000000000  
  0.0863980000000000  0.7501760000000000  0.7819190000000000  
  0.0858450000000000  0.0006510000000000  0.2813320000000000  
  0.0866210000000000  0.0001480000000000  0.7822270000000000  
  0.0858510000000000  0.2493480000000000  0.2813500000000000  
  0.0866260000000000  0.2498250000000000  0.7822490000000000  
  0.0850530000000000  0.5000780000000000  0.2816790000000000  
  0.0864040000000000  0.4997750000000000  0.7819390000000001  
  0.1621380000000000  0.6249640000000000  0.2175410000000000  
  0.1627380000000000  0.6249590000000000  0.7179810000000000  
  0.1615250000000000  0.8762760000000001  0.2167420000000000  
  0.1629030000000000  0.8750160000000000  0.7181780000000000  
  0.1628240000000000  0.1249680000000000  0.2174690000000000  
  0.1631840000000000  0.1249590000000000  0.7179460000000000  
  0.1615390000000000  0.3736640000000000  0.2167770000000000  
  0.1629110000000000  0.3749070000000000  0.7182320000000000  
  0.1695070000000000  0.6249450000000000  0.4438270000000000  
  0.1677830000000000  0.6249370000000000  0.9436240000000000  
  0.1664280000000000  0.8768089999999999  0.4451890000000000  
  0.1686610000000000  0.8748470000000000  0.9453290000000000  
  0.1681550000000000  0.1249340000000000  0.4450550000000000  
  0.1688570000000000  0.1249320000000000  0.9457490000000000  
  0.1664540000000000  0.3730710000000000  0.4452410000000000  
  0.1686900000000000  0.3750250000000000  0.9454010000000000  
  0.0813660000000000  0.7501570000000000  0.0541190000000000  
  0.0818110000000000  0.7497850000000000  0.5543200000000000  
  0.0812560000000000  0.0005410000000000  0.0534650000000000  
  0.0817020000000000  0.0000070000000000  0.5544810000000000  
  0.0812600000000000  0.2494640000000000  0.0534810000000000  
  0.0817070000000000  0.2500280000000000  0.5545000000000000  
  0.0813710000000000  0.4998420000000000  0.0541320000000000  
  0.0818160000000000  0.5002350000000000  0.5543360000000001  
  0.4969810000000000  0.6248890000000000  0.1312100000000000  
  0.5010130000000000  0.6244880000000000  0.6319300000000000  
  0.4978480000000000  0.8757340000000000  0.1280200000000000  
  0.4999010000000000  0.8782600000000000  0.6300430000000000  
  0.4976130000000000  0.1248660000000000  0.1285820000000000  
  0.4980220000000000  0.1245270000000000  0.6279010000000000  
  0.4978100000000000  0.3740540000000000  0.1281070000000000  
  0.4999380000000000  0.3706780000000000  0.6302050000000000  
  0.2473900000000000  0.7568250000000000  0.3671740000000000  
  0.2520890000000000  0.7495970000000000  0.8721500000000000  
  0.2514480000000000  0.0001820000000000  0.3709690000000000  
  0.2518910000000000  0.9998939999999999  0.8713730000000000  
  0.2514520000000000  0.2495650000000000  0.3710230000000000  
  0.2518970000000000  0.2498740000000000  0.8714499999999999  
  0.2474030000000000  0.4929510000000000  0.3672330000000000  
  0.2520960000000000  0.5001750000000000  0.8722160000000000  
  0.3349510000000000  0.6248680000000000  0.2880100000000000  
  0.3355950000000000  0.6248710000000000  0.7792650000000000  
  0.3376900000000000  0.8710740000000000  0.2843620000000000  
  0.3365150000000000  0.8744490000000000  0.7825170000000000  
  0.3367620000000000  0.1247580000000000  0.2818940000000000  
  0.3366780000000000  0.1248180000000000  0.7811620000000000  
  0.3377000000000000  0.3785020000000000  0.2844880000000000  
  0.3365040000000000  0.3752240000000000  0.7826689999999999  
  0.4140150000000000  0.7499390000000000  0.2145910000000000  
  0.4121850000000000  0.7470970000000000  0.7130890000000000  
  0.4127350000000000  0.9990280000000000  0.2173430000000000  
  0.4126180000000000  0.9986720000000000  0.7167829999999999  
  0.4127320000000000  0.2504840000000000  0.2174110000000000  
  0.4126110000000000  0.2508270000000000  0.7168800000000000  
  0.4140230000000000  0.4998370000000000  0.2148770000000000  
  0.4121860000000000  0.5023800000000000  0.7133389999999999  
  0.4229600000000000  0.7479130000000000  0.4498190000000000  
  0.4172410000000000  0.7494940000000000  0.9414280000000000  
  0.4179240000000000  0.9988460000000000  0.4456560000000000  
  0.4176920000000000  0.9997940000000000  0.9451060000000000  
  0.4179220000000000  0.2502080000000000  0.4457120000000000  
  0.4176810000000000  0.2499230000000000  0.9451810000000000  
  0.4228960000000000  0.5008190000000000  0.4503870000000000  
  0.4172280000000000  0.5003120000000000  0.9415790000000001  
  0.3313750000000000  0.6248660000000000  0.0576840000000000  
  0.3223190000000000  0.6248350000000000  0.5451110000000000  
  0.3315870000000000  0.8743490000000000  0.0554030000000000  
  0.3311320000000000  0.8730240000000000  0.5541290000000000  
  0.3317010000000000  0.1248690000000000  0.0535940000000000  
  0.3318410000000000  0.1248690000000000  0.5532000000000000  
  0.3316220000000000  0.3754110000000000  0.0555670000000000  
  0.3310970000000000  0.3766970000000000  0.5542710000000000  
  0.7479850000000000  0.0000150000000000  0.1286590000000000  
  0.7478669999999999  0.9999270000000000  0.6278560000000000  
  0.7479870000000000  0.2495590000000000  0.1286610000000000  
  0.7478640000000000  0.2495990000000000  0.6278650000000000  
  0.7479410000000000  0.4996880000000000  0.1284790000000000  
  0.7479570000000000  0.4996600000000000  0.6278440000000000  
  0.7479400000000000  0.7498600000000000  0.1284670000000000  
  0.7479580000000000  0.7498590000000001  0.6278340000000000  
  0.5012560000000000  0.1245540000000000  0.3715070000000000  
  0.5013170000000000  0.1248360000000000  0.8703750000000000  
  0.5019340000000000  0.3753610000000000  0.3726200000000000  
  0.5014780000000000  0.3756860000000000  0.8702420000000000  
  0.5071420000000000  0.6245700000000000  0.3753150000000000  
  0.5018840000000000  0.6248390000000000  0.8715200000000000  
  0.5019600000000000  0.8737380000000000  0.3725320000000000  
  0.5014990000000000  0.8740010000000000  0.8701730000000000  
  0.5862560000000000  0.9996200000000000  0.2817120000000000  
  0.5870430000000000  0.0001420000000000  0.7824650000000000  
  0.5862370000000000  0.2499050000000000  0.2817390000000000  
  0.5870460000000000  0.2491600000000000  0.7825140000000000  
  0.5871580000000000  0.4990240000000000  0.2812270000000000  
  0.5873500000000000  0.4991910000000000  0.7828870000000000  
  0.5871810000000000  0.7504430000000000  0.2812000000000000  
  0.5873580000000000  0.7501120000000000  0.7828440000000000  
  0.6626640000000000  0.1248220000000000  0.2174560000000000  
  0.6633559999999999  0.1246580000000000  0.7181780000000000  
  0.6630810000000000  0.3744620000000000  0.2173350000000000  
  0.6639250000000000  0.3741110000000000  0.7185800000000000  
  0.6631430000000000  0.6247860000000000  0.2173360000000000  
  0.6641280000000001  0.6246190000000000  0.7184400000000000  
  0.6630890000000000  0.8751340000000000  0.2173010000000000  
  0.6639240000000000  0.8751700000000000  0.7185410000000000  
  0.6676390000000000  0.1247810000000000  0.4453210000000000  
  0.6681140000000000  0.1247030000000000  0.9461540000000001  
  0.6675060000000000  0.3751130000000000  0.4452620000000000  
  0.6680330000000000  0.3744940000000000  0.9459950000000000  
  0.6674970000000000  0.6247850000000000  0.4450130000000000  
  0.6679720000000000  0.6247150000000000  0.9457920000000000  
  0.6675080000000000  0.8744420000000001  0.4452390000000000  
  0.6680320000000000  0.8749290000000000  0.9459610000000001  
  0.5807310000000000  0.9999660000000000  0.0536820000000000  
  0.5819090000000000  0.0001860000000000  0.5541440000000000  
  0.5807130000000000  0.2497690000000000  0.0537000000000000  
  0.5818890000000000  0.2488530000000000  0.5541490000000000  
  0.5802950000000000  0.5000960000000000  0.0550170000000000  
  0.5824650000000000  0.4983040000000000  0.5568310000000000  
  0.5802950000000000  0.7496100000000000  0.0549780000000000  
  0.5824840000000000  0.7507140000000000  0.5568470000000000  
  0.9971300000000000  0.1249910000000000  0.1275820000000000  
  0.9976960000000000  0.1249990000000000  0.6280200000000000  
  0.9971060000000000  0.3748580000000000  0.1276530000000000  
  0.9976159999999999  0.3750340000000000  0.6279250000000000  
  0.9970770000000000  0.6249860000000000  0.1276720000000000  
  0.9975020000000000  0.6249940000000000  0.6278589999999999  
  0.9971000000000000  0.8751220000000000  0.1276470000000000  
  0.9976130000000000  0.8749620000000000  0.6279200000000000  
  0.7516750000000000  0.9998000000000000  0.3716850000000000  
  0.7522489999999999  0.9998440000000000  0.8720830000000001  
  0.7516730000000000  0.2498890000000000  0.3716970000000000  
  0.7522529999999999  0.2496560000000000  0.8720940000000000  
  0.7520460000000000  0.4998790000000000  0.3717330000000000  
  0.7522980000000000  0.4996930000000000  0.8720900000000000  
  0.7520540000000000  0.7498080000000000  0.3717240000000000  
  0.7522970000000000  0.7497880000000000  0.8720780000000000  
  0.8364180000000000  0.1249110000000000  0.2821250000000000  
  0.8365250000000000  0.1248640000000000  0.7816470000000000  
  0.8364260000000000  0.3748820000000000  0.2819890000000000  
  0.8365220000000000  0.3748760000000000  0.7816700000000000  
  0.8364590000000000  0.6249070000000000  0.2819260000000000  
  0.8365430000000000  0.6248580000000000  0.7817120000000000  
  0.8364270000000000  0.8749360000000000  0.2819880000000000  
  0.8365200000000000  0.8748460000000000  0.7816750000000000  
  0.9128390000000000  0.9999760000000000  0.2179620000000000  
  0.9129550000000000  0.9998610000000000  0.7175500000000000  
  0.9128410000000000  0.2499090000000000  0.2179660000000000  
  0.9129550000000000  0.2499930000000000  0.7175510000000000  
  0.9128510000000000  0.4998640000000000  0.2178940000000000  
  0.9129850000000000  0.4999330000000000  0.7176979999999999  
  0.9128500000000001  0.7500180000000000  0.2178920000000000  
  0.9129850000000000  0.7499160000000000  0.7176970000000000  
  0.9177410000000000  0.0000430000000000  0.4453620000000000  
  0.9176580000000000  0.9999600000000000  0.9448240000000000  
  0.9177390000000000  0.2499460000000000  0.4453640000000000  
  0.9176569999999999  0.2499730000000000  0.9448280000000000  
  0.9178060000000000  0.4998940000000000  0.4452300000000000  
  0.9177370000000000  0.4999470000000000  0.9448480000000000  
  0.9178070000000000  0.7500890000000000  0.4452290000000000  
  0.9177390000000000  0.7499770000000000  0.9448470000000000  
  0.8317770000000000  0.1248240000000000  0.0547690000000000  
  0.8314790000000000  0.1248510000000000  0.5543240000000000  
  0.8316320000000000  0.3747330000000000  0.0547630000000000  
  0.8314920000000000  0.3748150000000000  0.5544519999999999  
  0.8316200000000000  0.6248190000000000  0.0547750000000000  
  0.8315720000000000  0.6248430000000000  0.5545940000000000  
  0.8316140000000000  0.8749150000000000  0.0547560000000000  
  0.8314920000000000  0.8748820000000000  0.5544540000000000  
