Co1 Ga128 O192
   1.00000000000000
    24.9361379999999997    0.0000000000000000    0.0000000000000000
     0.0000000000000000   12.3494290000000007    0.0000000000000000
    -2.7833760000000001    0.0000000000000000   11.4316289999999992
   Co   Ga   O
     1   128   192
Direct
  0.3632757240601230  0.5000000000000000  0.4799505374675649
  0.4219012464048377  0.6249698067579026  0.8430923728224491
  0.4252625077532245  0.6299712728086756  0.3360644669493886
  0.4210469793962075  0.8755986193379935  0.8431224753668276
  0.4214664797050262  0.8759163616701182  0.3438145474547217
  0.4210469793962075  0.1244013806620071  0.8431224753668276
  0.4214664797050262  0.1240836383298807  0.3438145474547217
  0.4219012464048377  0.3750301932421124  0.8430923728224491
  0.4252625077532245  0.3700287271913325  0.3360644669493886
  0.3239399427002844  0.5000000000000000  0.6737388266285824
  0.3287370021166806  0.5000000000000000  0.1630224740206985
  0.3290237259120488  0.7522464550737923  0.6591447392041221
  0.3290117172912790  0.7531683169942845  0.1548493285228486
  0.3294596461516303  0.0000000000000000  0.6554923864873556
  0.3292443129506263  0.0000000000000000  0.1559613944585416
  0.3290237259120488  0.2477535449262105  0.6591447392041221
  0.3290117172912790  0.2468316830057185  0.1548493285228479
  0.4661033095546411  0.5000000000000000  0.6221285780643357
  0.4555043937110234  0.5000000000000000  0.1012663500818728
  0.4559412963812068  0.7509924592393078  0.6020575893030848
  0.4558139212116409  0.7501452325097033  0.1003202889058978
  0.4557172853477555  0.0000000000000000  0.6028418818335272
  0.4553032523831677  0.0000000000000000  0.1026662004217147
  0.4559412963812068  0.2490085407606900  0.6020575893030848
  0.4558139212116409  0.2498547674902850  0.1003202889058978
  0.2943701032520430  0.6254496135079882  0.9020108606790496
  0.2849268754879428  0.6279453081090547  0.3863507764445021
  0.2945369914704193  0.8754050314814213  0.8959820160635987
  0.2948712525261971  0.8761697176015207  0.3965387059683261
  0.2945369914704193  0.1245949685185818  0.8959820160635987
  0.2948712525261971  0.1238302823984692  0.3965387059683261
  0.2943701032520430  0.3745503864920102  0.9020108606790496
  0.2849268754879428  0.3720546918909555  0.3863507764445021
  0.1701270096651910  0.5000000000000000  0.8422832410771659
  0.1653826979135681  0.5000000000000000  0.3411501414562316
  0.1701669087508114  0.7504943403717760  0.8424184836496397
  0.1669763134211010  0.7523391059277977  0.3408895386929124
  0.1704842862965368  0.0000000000000000  0.8426625369625756
  0.1694690475776072  0.0000000000000000  0.3416279387198755
  0.1701669087508114  0.2495056596282171  0.8424184836496397
  0.1669763134211010  0.2476608940721980  0.3408895386929124
  0.0783279549512181  0.6251266734457613  0.6569651234944953
  0.0774165428781563  0.6257933564376804  0.1542871931371252
  0.0788739816297416  0.8750454323614686  0.6562649950925004
  0.0776255378931369  0.8757965129239067  0.1549639851147591
  0.0788739816297416  0.1249545676385395  0.6562649950925004
  0.0776255378931369  0.1242034870760933  0.1549639851147591
  0.0783279549512181  0.3748733265542451  0.6569651234944953
  0.0774165428781563  0.3742066435623160  0.1542871931371252
  0.2027440286274552  0.6265243492562638  0.6015325599137021
  0.2037217837338023  0.6249074787071839  0.1025923858042472
  0.2049629542235059  0.8752937945421778  0.6017549316005361
  0.2049545351850643  0.8748788196462736  0.1037284685984310
  0.2049629542235059  0.1247062054578374  0.6017549316005361
  0.2049545351850643  0.1251211803537249  0.1037284685984310
  0.2027440286274552  0.3734756507437281  0.6015325599137021
  0.2037217837338023  0.3750925212928193  0.1025923858042472
  0.0441745421731294  0.5000000000000000  0.8967432890894269
  0.0433062284117909  0.5000000000000000  0.3984054060480431
  0.0441159675130306  0.7503396456690609  0.8963352559344681
  0.0437190319571908  0.7502305461021044  0.3978174087304855
  0.0443006564505624  0.0000000000000000  0.8960058318468261
  0.0444261020963380  0.0000000000000000  0.3973166032690385
  0.0441159675130306  0.2496603543309367  0.8963352559344681
  0.0437190319571908  0.2497694538978888  0.3978174087304855
  0.5798481876587253  0.1247291184540345  0.1570778155367469
  0.5803904397142935  0.1242649065909942  0.6584497137499423
  0.5800547043003824  0.3745940381914600  0.1581090132827062
  0.5825142025669664  0.3731765310365263  0.6588763114687999
  0.5800547043003824  0.6254059618085394  0.1581090132827062
  0.5825142025669664  0.6268234689634815  0.6588763114687999
  0.5798481876587253  0.8752708815459709  0.1570778155367469
  0.5803904397142935  0.8757350934090059  0.6584497137499423
  0.6712302071510204  0.0000000000000000  0.3430053862033139
  0.6717361778009354  0.0000000000000000  0.8437329641845657
  0.6715347316507825  0.2497867044758741  0.3429589614542696
  0.6719716861124398  0.2491963680546395  0.8446321543488068
  0.6715879431571619  0.5000000000000000  0.3429727599404834
  0.6720461630654271  0.5000000000000000  0.8445231579393875
  0.6715347316507825  0.7502132955241203  0.3429589614542696
  0.6719716861124398  0.7508036319453553  0.8446321543488068
  0.5455419078546688  0.0000000000000000  0.3974223459699788
  0.5447260376174463  0.0000000000000000  0.8965487435982959
  0.5471543218325426  0.2478925293030191  0.3983991269572272
  0.5456004904379308  0.2500806525051351  0.8968649649598754
  0.5472324088427587  0.5000000000000000  0.3985212673460886
  0.5469099292093929  0.5000000000000000  0.8996200187025798
  0.5471543218325426  0.7521074706969733  0.3983991269572272
  0.5456004904379308  0.7499193474948747  0.8968649649598754
  0.7056497262580713  0.1247764327149600  0.1029609302554312
  0.7053283256089452  0.1248209168132528  0.6022883015954742
  0.7055781581344385  0.3748854784814186  0.1028341700299540
  0.7059040507408900  0.3748409310819636  0.6019120718830296
  0.7055781581344385  0.6251145215185814  0.1028341700299540
  0.7059040507408900  0.6251590689180435  0.6019120718830296
  0.7056497262580713  0.8752235672850393  0.1029609302554312
  0.7053283256089452  0.8751790831867469  0.6022883015954742
  0.8293713195350896  0.0000000000000000  0.1571435118046352
  0.8292975898383605  0.0000000000000000  0.6566436262644615
  0.8293008416986538  0.2498678907404435  0.1571051055180380
  0.8293644922299213  0.2498335157100183  0.6568358604916339
  0.8292567167164444  0.5000000000000000  0.1570276902559117
  0.8294304353047196  0.5000000000000000  0.6569848400667512
  0.8293008416986538  0.7501321092595565  0.1571051055180380
  0.8293644922299213  0.7501664842899797  0.6568358604916339
  0.9202723285304474  0.1248400748379094  0.3428940528198164
  0.9203676659615858  0.1248772512077820  0.8421757108618658
  0.9200711364481939  0.3748664736966730  0.3427362485820813
  0.9204084865970246  0.3749084558164523  0.8424053805756768
  0.9200711364481939  0.6251335263033270  0.3427362485820813
  0.9204084865970246  0.6250915441835334  0.8424053805756768
  0.9202723285304474  0.8751599251620976  0.3428940528198164
  0.9203676659615858  0.8751227487922265  0.8421757108618658
  0.7951163759361366  0.1248724830659517  0.3975275990027196
  0.7955203762521735  0.1248690550761303  0.8976571670213714
  0.7951598782587550  0.3749358981429395  0.3975940517601059
  0.7954732786337068  0.3748992407232455  0.8976900928395095
  0.7951598782587550  0.6250641018570688  0.3975940517601059
  0.7954732786337068  0.6251007592767638  0.8976900928395095
  0.7951163759361366  0.8751275169340531  0.3975275990027196
  0.7955203762521735  0.8751309449238676  0.8976571670213714
  0.9540009526599003  0.0000000000000000  0.1017466770814735
  0.9548735293944387  0.0000000000000000  0.6022154979648533
  0.9541026859613632  0.2498115575059955  0.1019075098533444
  0.9547329342413198  0.2497866001475310  0.6022556494513017
  0.9541195743810588  0.5000000000000000  0.1019920852094958
  0.9545372775086292  0.5000000000000000  0.6022189273924734
  0.9541026859613632  0.7501884424940053  0.1019075098533444
  0.9547329342413198  0.7502133998524610  0.6022556494513017
  0.2526157897615108  0.5000000000000000  0.8719495714625998
  0.2453438662624040  0.5000000000000000  0.3652376987933779
  0.2523564946311038  0.7500255129855251  0.8716198894715099
  0.2488319802601347  0.7554787483582749  0.3695357249245276
  0.2521010268198476  0.0000000000000000  0.8699403417801912
  0.2518458719917808  0.0000000000000000  0.3717490524826241
  0.2523564946311038  0.2499744870144716  0.8716198894715099
  0.2488319802601347  0.2445212516417233  0.3695357249245276
  0.5013057520339733  0.6297349438562040  0.6337151730713121
  0.4978048758103116  0.6248674547378015  0.1280658561540735
  0.4982844934628896  0.8753743042913014  0.6282200704699822
  0.4977374883753277  0.8750105806161252  0.1281404113461052
  0.4982844934628896  0.1246256957086963  0.6282200704699822
  0.4977374883753277  0.1249894193838612  0.1281404113461052
  0.5013057520339733  0.3702650561437930  0.6337151730713121
  0.4978048758103116  0.3751325452622014  0.1280658561540735
  0.4135720273430227  0.5000000000000000  0.7172005058307985
  0.4143705847255365  0.5000000000000000  0.2203154934116304
  0.4120057543234931  0.7464323101358931  0.7142510525278429
  0.4127277836238096  0.7489012324713966  0.2155445043126328
  0.4129233822739436  0.0000000000000000  0.7169565263553499
  0.4129114121465177  0.0000000000000000  0.2179521559067184
  0.4120057543234931  0.2535676898641068  0.7142510525278429
  0.4127277836238096  0.2510987675285963  0.2155445043126328
  0.3358417844197660  0.6248878539134580  0.7826886862103273
  0.3386574335985940  0.6167244024477276  0.2950771254264277
  0.3370033893505007  0.8745869619132767  0.7813060270909967
  0.3371570097901563  0.8730754628686518  0.2819794049483007
  0.3370033893505007  0.1254130380867285  0.7813060270909967
  0.3371570097901563  0.1269245371313532  0.2819794049483007
  0.3358417844197660  0.3751121460865383  0.7826886862103273
  0.3386574335985940  0.3832755975522647  0.2950771254264277
  0.3279477049349970  0.6168453390416044  0.5478768074955935
  0.3314484003999585  0.6245705135541115  0.0596426064695993
  0.3321491158631927  0.8734194427200318  0.5532788471238242
  0.3319373103145598  0.8757518728595202  0.0530407910691938
  0.3321491158631927  0.1265805572799615  0.5532788471238242
  0.3319373103145598  0.1242481271404823  0.0530407910691941
  0.3279477049349970  0.3831546609584039  0.5478768074955935
  0.3314484003999585  0.3754294864458854  0.0596426064695991
  0.4170884603770763  0.5000000000000000  0.9446647279160447
  0.4324523490411428  0.5000000000000000  0.4529159037073447
  0.4176357800636902  0.7494923581570667  0.9437258637132647
  0.4198252433248851  0.7481718824680270  0.4444413508316982
  0.4180396000932509  0.0000000000000000  0.9453121472864845
  0.4177013337136224  0.0000000000000000  0.4458901972930274
  0.4176357800636902  0.2505076418429322  0.9437258637132647
  0.4198252433248851  0.2518281175319680  0.4444413508316982
  0.0017600281714480  0.6250933329439563  0.8711208596526303
  0.0013122020782387  0.6252183166700753  0.3719493197964867
  0.0016237219871363  0.8752516670927712  0.8705848695204861
  0.0015451740234983  0.8753747286429366  0.3719521150100142
  0.0016237219871363  0.1247483329072369  0.8705848695204861
  0.0015451740234983  0.1246252713570560  0.3719521150100142
  0.0017600281714480  0.3749066670560401  0.8711208596526303
  0.0013122020782387  0.3747816833299282  0.3719493197964867
  0.2450419229457246  0.5000000000000000  0.6273609825096076
  0.2474978423668232  0.5000000000000000  0.1301943386504915
  0.2483968014160912  0.7490218116170361  0.6255983897445857
  0.2484340928756132  0.7489605603733873  0.1313304461301773
  0.2486176179988223  0.0000000000000000  0.6267878023787440
  0.2484534535931780  0.0000000000000000  0.1297534853640691
  0.2483968014160912  0.2509781883829520  0.6255983897445857
  0.2484340928756132  0.2510394396266099  0.1313304461301773
  0.1629757653477354  0.6255007917021730  0.7186512559622261
  0.1615504133715451  0.6264991188926656  0.2166636407484365
  0.1637885827434163  0.8745550054180817  0.7177368151799413
  0.1622927258533179  0.8757926090846583  0.2170342786725867
  0.1637885827434163  0.1254449945819175  0.7177368151799413
  0.1622927258533179  0.1242073909153537  0.2170342786725867
  0.1629757653477354  0.3744992082978236  0.7186512559622261
  0.1615504133715451  0.3735008811073237  0.2166636407484365
  0.0868033624504071  0.5000000000000000  0.7824564227042062
  0.0847934025279144  0.5000000000000000  0.2814819590685723
  0.0868656277764299  0.7504440870865090  0.7823604597618520
  0.0851525014054190  0.7507222023792303  0.2811710198372996
  0.0873370410215651  0.0000000000000000  0.7823782444534205
  0.0859887047724894  0.0000000000000000  0.2811766083402482
  0.0868656277764299  0.2495559129134973  0.7823604597618520
  0.0851525014054190  0.2492777976207615  0.2811710198372996
  0.0821264178627735  0.5000000000000000  0.5546222877191039
  0.0814325820867700  0.5000000000000000  0.0539270081872634
  0.0819678101006064  0.7496935009247961  0.5544069821779122
  0.0812756407975563  0.7506569676090786  0.0534141046955523
  0.0819546217083676  0.0000000000000000  0.5544367970340028
  0.0813732011211493  0.0000000000000000  0.0530699541680005
  0.0819678101006064  0.2503064990751888  0.5544069821779122
  0.0812756407975563  0.2493430323909233  0.0534141046955529
  0.1691427032133619  0.6250537990056968  0.9451769284001752
  0.1674083567946770  0.6266607082709106  0.4443706658909667
  0.1695959302379193  0.8748873970056348  0.9460926934173796
  0.1672907128415188  0.8761277812147072  0.4455628926309785
  0.1695959302379193  0.1251126029943637  0.9460926934173796
  0.1672907128415188  0.1238722187852904  0.4455628926309785
  0.1691427032133619  0.3749462009942980  0.9451769284001752
  0.1674083567946770  0.3733392917291056  0.4443706658909667
  0.7483507128874397  0.0000000000000000  0.1286885988371979
  0.7480711990832440  0.0000000000000000  0.6278257797864628
  0.7481654209674556  0.2498973147070084  0.1283863505240084
  0.7481312996954835  0.2496586065406359  0.6279573112759765
  0.7480984320223104  0.5000000000000000  0.1283869932186040
  0.7482538770130540  0.5000000000000000  0.6279835346035370
  0.7481654209674556  0.7501026852929867  0.1283863505240084
  0.7481312996954835  0.7503413934593612  0.6279573112759765
  0.5021840418728545  0.1249913403751428  0.3714145865355429
  0.5015647858303117  0.1257024985549000  0.8700682016834173
  0.5047306793910983  0.3737704561186717  0.3709486419623745
  0.5024688854003716  0.3759276518358456  0.8721507280131569
  0.5047306793910983  0.6262295438813288  0.3709486419623745
  0.5024688854003716  0.6240723481641697  0.8721507280131569
  0.5021840418728545  0.8750086596248560  0.3714145865355429
  0.5015647858303117  0.8742975014451022  0.8700682016834173
  0.5866567841789717  0.0000000000000000  0.2814892092321790
  0.5867647425903563  0.0000000000000000  0.7822144100634770
  0.5872174728187075  0.2492834856836540  0.2813006164538980
  0.5877798837635591  0.2490507976471374  0.7830189755981437
  0.5873365768783542  0.5000000000000000  0.2816806410234532
  0.5874443113193757  0.5000000000000000  0.7828277444309444
  0.5872174728187075  0.7507165143163472  0.2813006164538980
  0.5877798837635591  0.7509492023528557  0.7830189755981437
  0.6632419102620984  0.1246007027761269  0.2172620086260197
  0.6637204165277129  0.1244090406031554  0.7183729785019406
  0.6634517941252158  0.3746408605659966  0.2177389762169957
  0.6643026630050606  0.3749465314881816  0.7183335184893430
  0.6634517941252158  0.6253591394340016  0.2177389762169957
  0.6643026630050606  0.6250534685118089  0.7183335184893430
  0.6632419102620984  0.8753992972238682  0.2172620086260197
  0.6637204165277129  0.8755909593968432  0.7183729785019406
  0.6679080334101670  0.1249952477583731  0.4451741081607883
  0.6683466303510168  0.1245563501030047  0.9460781258764214
  0.6678528406836662  0.3750306083177301  0.4453132151150313
  0.6682897890476700  0.3748385992769934  0.9457708312696077
  0.6678528406836662  0.6249693916822751  0.4453132151150313
  0.6682897890476700  0.6251614007230140  0.9457708312696077
  0.6679080334101670  0.8750047522416169  0.4451741081607883
  0.6683466303510168  0.8754436498969971  0.9460781258764214
  0.5806047580785512  0.0000000000000000  0.0536962920519372
  0.5816026851141575  0.0000000000000000  0.5546056509195482
  0.5809002183664334  0.2500171624854016  0.0543247836746337
  0.5828613141866036  0.2485669258849230  0.5552993691958128
  0.5819382201786905  0.5000000000000000  0.0561582282019137
  0.5812770505905606  0.5000000000000000  0.5563572517299878
  0.5809002183664334  0.7499828375146033  0.0543247836746337
  0.5828613141866036  0.7514330741150828  0.5552993691958128
  0.9971309829597347  0.1248185790992093  0.1274409845315889
  0.9980419724859405  0.1250029423098962  0.6280315083640766
  0.9971490460240642  0.3748983561264834  0.1275873405815537
  0.9977614785312817  0.3750540263086912  0.6280202160261481
  0.9971490460240642  0.6251016438735141  0.1275873405815537
  0.9977614785312817  0.6249459736913150  0.6280202160261481
  0.9971309829597347  0.8751814209007994  0.1274409845315889
  0.9980419724859405  0.8749970576900977  0.6280315083640766
  0.7520276087586719  0.0000000000000000  0.3717338558633099
  0.7524995826567933  0.0000000000000000  0.8721504975467158
  0.7521343265488122  0.2499635133301696  0.3717671696590983
  0.7524855227443000  0.2498666022073059  0.8721206528337568
  0.7521610461351752  0.5000000000000000  0.3718260974734767
  0.7525185224272808  0.5000000000000000  0.8721502947822650
  0.7521343265488122  0.7500364866698348  0.3717671696590983
  0.7524855227443000  0.7501333977926935  0.8721206528337568
  0.8366454811688020  0.1250432377860204  0.2820666210879069
  0.8367379016620279  0.1250045643588508  0.7816083019414228
  0.8365881380064797  0.3750012037384376  0.2820176292277086
  0.8367336532304056  0.3749509136028899  0.7817579441263047
  0.8365881380064797  0.6249987962615673  0.2820176292277086
  0.8367336532304056  0.6250490863970989  0.7817579441263047
  0.8366454811688020  0.8749567622139768  0.2820666210879069
  0.8367379016620279  0.8749954356411502  0.7816083019414228
  0.9129953689524283  0.0000000000000000  0.2180362705678289
  0.9131854439584230  0.0000000000000000  0.7174328867569626
  0.9130190115910083  0.2499732887055406  0.2180327510843462
  0.9132013132955625  0.2500287805218896  0.7176082139668739
  0.9129913271733389  0.5000000000000000  0.2180023415471711
  0.9131687553851008  0.5000000000000000  0.7177448471899242
  0.9130190115910083  0.7500267112944587  0.2180327510843462
  0.9132013132955625  0.7499712194781138  0.7176082139668739
  0.9179375033652425  0.0000000000000000  0.4454662978003106
  0.9177783996589147  0.0000000000000000  0.9446197931498054
  0.9180362006281904  0.2498856016774840  0.4453909448893521
  0.9179751963364668  0.2499160910819050  0.9447166907281809
  0.9179803211710106  0.5000000000000000  0.4453051134135248
  0.9180154592619043  0.5000000000000000  0.9447938728285753
  0.9180362006281904  0.7501143983225209  0.4453909448893521
  0.9179751963364668  0.7500839089181010  0.9447166907281809
  0.8320722410537326  0.1250020497770830  0.0547287550702021
  0.8318509824643315  0.1249884277210403  0.5543849042006452
  0.8319560670373671  0.3749657363741112  0.0547753567678621
  0.8317790888656698  0.3749626583202486  0.5545233792645069
  0.8319560670373671  0.6250342636258946  0.0547753567678621
  0.8317790888656698  0.6250373416797330  0.5545233792645069
  0.8320722410537326  0.8749979502229198  0.0547287550702021
  0.8318509824643315  0.8750115722789611  0.5543849042006452