Au1 Ga128 O192
   1.00000000000000
    24.9361379999999997    0.0000000000000000    0.0000000000000000
     0.0000000000000000   12.3494290000000007    0.0000000000000000
    -2.7833760000000001    0.0000000000000000   11.4316289999999992
   Co   Ga   O
     1   128   192
Direct
  0.3616785342657438  0.6250000000000000  0.4472916670991345
  0.0745485022121165  0.6250000000000000  0.1564008590548763
  0.0782293412708146  0.6250000000000000  0.6545316937181096
  0.0782363545481999  0.8759461424729290  0.1550788099486303
  0.0776886024640249  0.8756852001594900  0.6558778718353688
  0.0783953725684634  0.1250000000000000  0.1566500640499031
  0.0785517988776910  0.1250000000000000  0.6572524814602255
  0.0782363545481999  0.3740548575270684  0.1550808099486324
  0.0776886024640249  0.3743147998405100  0.6558788718353663
  0.1665876316007625  0.7550710173631959  0.3477360261897617
  0.1693677089692135  0.7521975842496634  0.8352074191334093
  0.1699508091337092  0.0012506087992870  0.3423368633475521
  0.1700262823386113  0.0003712218121605  0.8436830795388732
  0.1699508091337092  0.2487503912007104  0.3423378633475496
  0.1700262823386113  0.2496287781878395  0.8436850795388753
  0.1665886316007600  0.4949289826368040  0.3477370261897663
  0.1693677089692135  0.4978024157503360  0.8352084191334068
  0.0430759792545794  0.7500085669084937  0.3972681934445068
  0.0451239865993684  0.7496574867425090  0.8972193834521572
  0.0444269856972480  0.0003368944896900  0.3974593703332004
  0.0442039239048166  0.0001342581329467  0.8969190599686319
  0.0444269856972480  0.2496631055103099  0.3974603703331979
  0.0442039239048166  0.2498657418670532  0.8969200599686293
  0.0430769792545840  0.4999914330915065  0.3972691934445042
  0.0451239865993684  0.5003425132574910  0.8972203834521547
  0.1973069591063298  0.6250000000000000  0.0832511891698220
  0.2051267750041907  0.6249990000000025  0.5997202680502252
  0.2037260982600224  0.8740416274835590  0.1035736388444421
  0.2043527751519023  0.8765670492884757  0.6032219938577067
  0.2051442155698049  0.1250000000000000  0.1035043477482577
  0.2047312090487999  0.1250009999999975  0.6032325358279701
  0.2037260982600224  0.3759583725164407  0.1035746388444396
  0.2043517751518977  0.3734329507115243  0.6032229938577042
  0.3290558854394749  0.7500486620685055  0.1533935816552290
  0.3277208170573945  0.7520448124164615  0.6616062844418805
  0.3284111003438754  0.0002386637106554  0.1562348021163754
  0.3290554157667581  0.0003168212712773  0.6557221655512924
  0.3284111003438754  0.2497613362893447  0.1562358021163800
  0.3290554157667581  0.2496841787287200  0.6557231655512969
  0.3290558854394749  0.4999503379314901  0.1533955816552240
  0.3277208170573945  0.4979551875835388  0.6616062844418805
  0.4351785047578300  0.6250000000000000  0.3253137909145377
  0.4207936988177421  0.6250000000000000  0.8416342107980699
  0.4205328186357968  0.8758230615295699  0.3412912835898239
  0.4210711141225382  0.8755432357162204  0.8419953273026750
  0.4199069894595842  0.1250000000000000  0.3431376622507450
  0.4204703856027650  0.1250000000000000  0.8427747391102991
  0.4205318186357994  0.3741769384704307  0.3412922835898284
  0.4210711141225382  0.3744567642837799  0.8419963273026725
  0.2574974689019608  0.6249979999999979  0.3019472060552937
  0.2940940604202639  0.6250000000000000  0.8968806155273443
  0.2941673799483869  0.8729843594540776  0.3980138979430133
  0.2938687172843651  0.8748664639340025  0.8964491980681273
  0.2938410429727782  0.1250020000000021  0.3970491592209687
  0.2944584371129580  0.1250000000000000  0.8960580527432865
  0.2941673799483869  0.3770166405459198  0.3980138979430133
  0.2938687172843651  0.3751335360659970  0.8964501980681319
  0.4570153310915732  0.7510507088014146  0.0984893197510766
  0.4577140783463784  0.7498754523917964  0.6069995119682031
  0.4547695719097479  0.0002552976681676  0.1017665287553782
  0.4549200597867469  0.0000721036719699  0.6023641956649423
  0.4547695719097479  0.2497447023318322  0.1017675287553828
  0.4549200597867469  0.2499278963280303  0.6023651956649397
  0.4570143310915757  0.4989492911985853  0.0984893197510766
  0.4577140783463784  0.5001245476082034  0.6069995119682031
  0.5790924844877138  0.1250000000000000  0.1577927303278769
  0.5794457287393612  0.1250000000000000  0.6571887734701831
  0.5800334573154996  0.3739568486386800  0.1573323933561024
  0.5804469726015883  0.3735539177115444  0.6594825355556738
  0.5803917483013881  0.6250000000000000  0.1576462706294653
  0.5814399433303143  0.6250000000000000  0.6598681689436795
  0.5800334573154996  0.8760431513613200  0.1573323933561024
  0.5804469726015883  0.8764460822884557  0.6594825355556738
  0.6708557008768621  0.0003018547884259  0.3435731740367814
  0.6713458075050123  0.0003666670904749  0.8436489953884139
  0.6708557008768621  0.2496981452115741  0.3435731740367814
  0.6713458075050123  0.2496333329095249  0.8436489953884139
  0.6720024650059222  0.4996245848429174  0.3426330019114970
  0.6715834605609682  0.4995831869438654  0.8443171624198844
  0.6720024650059222  0.7503754151570831  0.3426330019114970
  0.6715834605609682  0.7504168130561348  0.8443171624198844
  0.5441404630346802  0.0002769873524073  0.3972703233976002
  0.5448541063188662  0.0003490393997205  0.8972709810915118
  0.5441404630346802  0.2497230126475926  0.3972703233976002
  0.5448541063188662  0.2496509606002794  0.8972709810915118
  0.5504237972629569  0.4954208297278078  0.4011830838333647
  0.5453126165392621  0.4999405895782661  0.8975132691560009
  0.5504237972629569  0.7545791702721935  0.4011830838333647
  0.5453126165392621  0.7500594104217344  0.8975132691560009
  0.7049459260532824  0.1250000000000000  0.1030022679735742
  0.7051363360514217  0.1250000000000000  0.6027441647466383
  0.7054745775450527  0.3744101946134283  0.1026810630873488
  0.7051880546174981  0.3748338212170073  0.6026498919466610
  0.7055778345179168  0.6250000000000000  0.1023745367246043
  0.7052803350555140  0.6250000000000000  0.6021201816177240
  0.7054745775450527  0.8755898053865722  0.1026810630873488
  0.7051880546174981  0.8751661787829920  0.6026498919466610
  0.8291809868235253  0.0002698324339604  0.1570583278816024
  0.8291059456122044  0.0000428991467526  0.6572155728443879
  0.8291809868235253  0.2497301675660396  0.1570583278816024
  0.8291059456122044  0.2499571008532475  0.6572155728443879
  0.8289154733865751  0.4997175259648480  0.1570369660704764
  0.8290755925699467  0.4999020768183081  0.6573229478597090
  0.8289154733865751  0.7502824740351515  0.1570369660704764
  0.8290755925699467  0.7500979231816911  0.6573229478597090
  0.9203718108126213  0.1250000000000000  0.3426118785351465
  0.9203461290025073  0.1250000000000000  0.8428809841647383
  0.9201017099340413  0.3745631411170823  0.3426260491045072
  0.9205334385124501  0.3749422593056273  0.8422885612545348
  0.9197383045090878  0.6250000000000000  0.3425916550034375
  0.9205174832626475  0.6250000000000000  0.8421374626372787
  0.9201017099340413  0.8754368588829186  0.3426260491045072
  0.9205334385124501  0.8750577406943729  0.8422885612545348
  0.7949361630987936  0.1250000000000000  0.3976555551295747
  0.7951784272297965  0.1250000000000000  0.8978587924071095
  0.7950866917772736  0.3744670105822710  0.3978342220360982
  0.7951621030688169  0.3747871636347276  0.8975853110610130
  0.7952552543502837  0.6250000000000000  0.3980699677765444
  0.7951778487763356  0.6250000000000000  0.8976182183169187
  0.7950866917772736  0.8755329894177285  0.3978342220360982
  0.7951621030688169  0.8752128363652720  0.8975853110610130
  0.9546954749555343 -0.0000088100604566  0.1024011103381421
  0.9543441043400094  0.0003929968903239  0.6021767387914975
  0.9546954749555343  0.2500088100604565  0.1024011103381421
  0.9543441043400094  0.2496070031096759  0.6021767387914975
  0.9531700091030723  0.4990116271286094  0.1013475969416756
  0.9544454936596678  0.4999723510025406  0.6022399606980560
  0.9531700091030723  0.7509883728713893  0.1013475969416756
  0.9544454936596678  0.7500276489974600  0.6022399606980560
  0.2458705030578757  0.7442096722598801  0.1318572520579860
  0.2467195551326425  0.7513310411433710  0.6303610830333967
  0.2476353118668337  0.9983751192077110  0.1295681909313446
  0.2480762405693216  0.0002352691221280  0.6282019914943211
  0.2476353118668337  0.2516248807922883  0.1295691909313420
  0.2480762405693216  0.2497647308778719  0.6282029914943186
  0.2458695030578712  0.5057903277401199  0.1318562520579885
  0.2467195551326425  0.4986689588566288  0.6303610830333967
  0.0009533959865088  0.6250000000000000  0.3698828019449794
  0.0022576488594552  0.6250000000000000  0.8726823882977329
  0.0015355325636041  0.8755321454107976  0.3704150868878099
  0.0022286183489289  0.8742488043034372  0.8730059540866939
  0.0016341749349700  0.1250000000000000  0.3714936176528906
  0.0016055612846197  0.1250000000000000  0.8715604156959372
  0.0015355325636041  0.3744678545892033  0.3704160868878074
  0.0022286183489289  0.3757511956965623  0.8730069540866914
  0.0857524610630098  0.7470788716347813  0.2808955581755390
  0.0858693932302336  0.7512731020109189  0.7797072563849273
  0.0862232312673017  0.0002223425855215  0.2817182560080478
  0.0866696548691726  1.0002371233562624  0.7827499797574260
  0.0862232312673017  0.2497776574144784  0.2817192560080453
  0.0866696548691726  0.2497628766437395  0.7827509797574306
  0.0857534610630072  0.5029211283652187  0.2808955581755390
  0.0858693932302336  0.4987258979890767  0.7797082563849248
  0.1717823481724034  0.6250009999999975  0.2238687922168751
  0.1625116640801244  0.6250000000000000  0.7138552787963578
  0.1618103172384643  0.8755858659766202  0.2183141505458052
  0.1626118906423462  0.8760651377933705  0.7177942479776984
  0.1631486587679895  0.1250000000000000  0.2181183984629690
  0.1630997334799190  0.1250000000000000  0.7184592901630513
  0.1618103172384643  0.3744141340233801  0.2183161505458002
  0.1626118906423462  0.3739348622066294  0.7177952479776959
  0.1659870960969033  0.6250000000000000  0.4445207859680918
  0.1628736426956291  0.6250000000000000  0.9325703145080213
  0.1657770017717028  0.8785653229691645  0.4475284654935781
  0.1685616436160056  0.8734750109882597  0.9457955914931568
  0.1684304072512198  0.1250000000000000  0.4458386234328668
  0.1687192319772542  0.1250000000000000  0.9466763517327225
  0.1657770017717028  0.3714356770308407  0.4475294654935826
  0.1685616436160056  0.3765249890117398  0.9457965914931614
  0.0831422112202350  0.7474494234840446  0.0557289747205681
  0.0811203851029195  0.7506400161900518  0.5531788291184637
  0.0817137614223511  0.0002087976719592  0.0538953338599534
  0.0812929516532062  0.0003497544875636  0.5546965221128526
  0.0817137614223511  0.2497912023280407  0.0538973338599484
  0.0812929516532062  0.2496502455124363  0.5546975221128501
  0.0831422112202350  0.5025495765159579  0.0557299747205656
  0.0811203851029195  0.4993589838099434  0.5531798291184612
  0.4983130933697906  0.6250000000000000  0.1325227656051080
  0.4998653514840758  0.6250000000000000  0.6289666609218106
  0.4981363034101434  0.8761888696639633  0.1296251474144872
  0.4982074806129488  0.8755416296235167  0.6262526088049553
  0.4972617105703576  0.1250000000000000  0.1287691081160498
  0.4974405926480418  0.1250000000000000  0.6270565327404599
  0.4981363034101434  0.3738111303360377  0.1296261474144847
  0.4982074806129488  0.3744583703764826  0.6262536088049527
  0.2478499111976112  0.7529290289377462  0.3749568269669114
  0.2510700127070021  0.7495363439900469  0.8742502343663286
  0.2517599257232536  0.9988735672863865  0.3717816669231789
  0.2516333917473799  0.9999427354140796  0.8717223812448192
  0.2517599257232536  0.2511274327136104  0.3717826669231835
  0.2516333917473799  0.2500572645859198  0.8717233812448237
  0.2478499111976112  0.4970739710622517  0.3749548269669093
  0.2510700127070021  0.5004636560099531  0.8742502343663286
  0.3296186686523976  0.6250000000000000  0.2736263116732472
  0.3369479653630151  0.6250000000000000  0.7860283759026411
  0.3368086203486485  0.8695850124508723  0.2827658056579491
  0.3364571281638967  0.8743195278385728  0.7825592274664995
  0.3363289222465579  0.1249990000000025  0.2819804435847350
  0.3366267665630849  0.1250000000000000  0.7814003371061533
  0.3368076203486510  0.3804149875491270  0.2827668056579465
  0.3364571281638967  0.3756804721614272  0.7825592274664995
  0.4146269984216105  0.7470062818163855  0.2168477170310775
  0.4134332451955754  0.7498212888684392  0.7172035526051317
  0.4121881108265145  0.9982090233038426  0.2169716370457751
  0.4127514066433092  0.9993546214265538  0.7170448557071345
  0.4121881108265145  0.2517919766961617  0.2169726370457725
  0.4127514066433092  0.2506453785734463  0.7170458557071320
  0.4146259984216131  0.5029927181836170  0.2168487170310750
  0.4134332451955754  0.5001787111315608  0.7172045526051292
  0.4190011753784077  0.7408258954034699  0.4446757142340179
  0.4183214986451441  0.7503166901442747  0.9443374068639546
  0.4176328440340906  0.9983464566368103  0.4448861977725032
  0.4176202577391775  0.9996746359127937  0.9449501370623306
  0.4176328440340906  0.2516535433631908  0.4448871977725078
  0.4176202577391775  0.2503253640872059  0.9449511370623280
  0.4190011753784077  0.5091741045965301  0.4446757142340179
  0.4183214986451441  0.4996833098557246  0.9443374068639546
  0.3319109785168927  0.6249990000000025  0.0535041816589561
  0.3279581639649362  0.6250000000000000  0.5657119483384633
  0.3307491144956382  0.8740626074429335  0.0543914027869350
  0.3316304697247532  0.8734183773283741  0.5544415164896843
  0.3308188845285189  0.1250000000000000  0.0540755424861705
  0.3318341351856928  0.1250000000000000  0.5534101021143434
  0.3307491144956382  0.3759373925570657  0.0543924027869396
  0.3316304697247532  0.3765816226716255  0.5544415164896843
  0.7480367292116906  0.0005175115306244  0.1285061816796730
  0.7479024016586568  0.0000906697450421  0.6282816223121965
  0.7480367292116906  0.2494824884693757  0.1285061816796730
  0.7479024016586568  0.2499093302549577  0.6282816223121965
  0.7479366818759451  0.4997279525844354  0.1285632076145911
  0.7478286654542692  0.4999055252923346  0.6280418855343434
  0.7479366818759451  0.7502720474155641  0.1285632076145911
  0.7478286654542692  0.7500944747076655  0.6280418855343434
  0.5006468373413185  0.1250000000000000  0.3709202566386809
  0.5014286795531994  0.1250000000000000  0.8709100615687947
  0.5017307118445955  0.3773567553221008  0.3733918357740177
  0.5019866185250715  0.3750450567668810  0.8707508138675482
  0.5105453401972982  0.6250000000000000  0.3771126975668929
  0.5020054860259037  0.6250000000000000  0.8720303866303023
  0.5017307118445955  0.8726432446778993  0.3733918357740177
  0.5019866185250715  0.8749549432331187  0.8707508138675482
  0.5861244021142302  0.9999909773547742  0.2825344144076463
  0.5865353180360733  0.0002662488462490  0.7820072697613948
  0.5861244021142302  0.2500090226452270  0.2825344144076463
  0.5865353180360733  0.2497337511537512  0.7820072697613948
  0.5880026165122147  0.4984127277959618  0.2812662225851348
  0.5870883026745619  0.4996757689758127  0.7829112607768356
  0.5880026165122147  0.7515872722040385  0.2812662225851348
  0.5870883026745619  0.7503242310241879  0.7829112607768356
  0.6626952792702729  0.1250000000000000  0.2179506791327091
  0.6630039099584231  0.1250000000000000  0.7177924798393323
  0.6634005779901183  0.3739816968332387  0.2176045120433826
  0.6636439434533992  0.3740158148224123  0.7188479754893792
  0.6635118474120010  0.6250000000000000  0.2174121598851180
  0.6639493931329661  0.6250000000000000  0.7189265987050086
  0.6634005779901183  0.8760183031667610  0.2176045120433826
  0.6636439434533992  0.8759841851775876  0.7188479754893792
  0.6678292035332192  0.1250000000000000  0.4457296611086232
  0.6679343895699106  0.1250000000000000  0.9457245856486282
  0.6677561269388885  0.3752349871268829  0.4454735318962947
  0.6680414323382499  0.3746663137847451  0.9459136588947885
  0.6678049812886218  0.6250000000000000  0.4448730241540695
  0.6680911810635418  0.6250000000000000  0.9457869916231861
  0.6677561269388885  0.8747650128731166  0.4454735318962947
  0.6680414323382499  0.8753336862152550  0.9459136588947885
  0.5810014601255350  0.0005453319444586  0.0544808049950383
  0.5810361062520784  0.0002044027926801  0.5540935050304879
  0.5810014601255350  0.2494546680555414  0.0544808049950383
  0.5810361062520784  0.2497955972073198  0.5540935050304879
  0.5807364511851753  0.4998533116431009  0.0549646203814151
  0.5836374034578948  0.4985840276094590  0.5581705085145861
  0.5807364511851753  0.7501466883568991  0.0549646203814151
  0.5836374034578948  0.7514159723905407  0.5581705085145861
  0.9976925666930487  0.1250000000000000  0.1279502953441888
  0.9975964671105232  0.1250000000000000  0.6286136274378707
  0.9977269224212965  0.3757414501164607  0.1274619076966507
  0.9972172686269626  0.3746929397065549  0.6280495218974812
  0.9956205031728608  0.6250000000000000  0.1266592920228164
  0.9975362579610466  0.6250000000000000  0.6275867238234567
  0.9977269224212965  0.8742585498835389  0.1274619076966507
  0.9972172686269626  0.8753070602934443  0.6280495218974812
  0.7518440366085547  0.0001190649674130  0.3720052472967574
  0.7521754728179445  0.0001691051082681  0.8721054331870361
  0.7518440366085547  0.2498809350325871  0.3720052472967574
  0.7521754728179445  0.2498308948917319  0.8721054331870361
  0.7523385946510663  0.4999070256637682  0.3718853606123177
  0.7522464536283384  0.4998869263686926  0.8721881435790213
  0.7523385946510663  0.7500929743362322  0.3718853606123177
  0.7522464536283384  0.7501130736313079  0.8721881435790213
  0.8366594924367419  0.1250000000000000  0.2821752945431431
  0.8367400128764804  0.1250000000000000  0.7822748754041196
  0.8365131100110418  0.3746915842957585  0.2821278443056147
  0.8366382844072652  0.3749474787351567  0.7819426924127090
  0.8364974650851147  0.6250000000000000  0.2821394786996949
  0.8365859484216324  0.6250000000000000  0.7818738390480620
  0.8365131100110418  0.8753084157042411  0.2821278443056147
  0.8366382844072652  0.8750525212648429  0.7819426924127090
  0.9131280726043582  0.9999059704612092  0.2177538957086126
  0.9131026912198773  0.9998355789200929  0.7181217866942611
  0.9131280726043582  0.2500940295387905  0.2177538957086126
  0.9131026912198773  0.2501644210799075  0.7181217866942611
  0.9126527942040568  0.4995902061806273  0.2178589658660215
  0.9131637036269883  0.5001626181735477  0.7179696490285924
  0.9126527942040568  0.7504097938193727  0.2178589658660215
  0.9131637036269883  0.7498373818264523  0.7179696490285924
  0.9179519882500997  0.0001674526161748  0.4451532828151461
  0.9183170467863824  0.9997056365330271  0.9453153834801935
  0.9179519882500997  0.2498325473838252  0.4451532828151461
  0.9183170467863824  0.2502943634669727  0.9453153834801935
  0.9181468785729127  0.4998254637031093  0.4450634779226160
  0.9176680993469124  0.4999274665817357  0.9443338170446657
  0.9181468785729127  0.7501745362968918  0.4450634779226160
  0.9176680993469124  0.7500725334182655  0.9443338170446657
  0.8320693165933902  0.1250000000000000  0.0547186542606665
  0.8317769458260860  0.1250000000000000  0.5547528415738114
  0.8317601229443843  0.3748640821020048  0.0547109819741309
  0.8317658445077448  0.3749910276970848  0.5547913630795748
  0.8316744903337162  0.6250000000000000  0.0548723571972526
  0.8317885046757855  0.6250000000000000  0.5549348308030447
  0.8317601229443843  0.8751359178979956  0.0547109819741309
  0.8317658445077448  0.8750089723029149  0.5547913630795748
