Co   Ga   O
   1.00000000000000
    24.9361379999999997    0.0000000000000000    0.0000000000000000
     0.0000000000000000   12.3494290000000007    0.0000000000000000
    -2.7833760000000001    0.0000000000000000   11.4316289999999992
   Co   Ga   O
     1   128   192
Direct
  0.1980822193887816  0.5000000000000000  0.2771435901924625
  0.0778833297317589  0.6272546239491693  0.1546831565033598
  0.0791612652646841  0.6287650885735911  0.6564328386207365
  0.0792412239819538  0.8758993430047817  0.1546963277021898
  0.0791592111625638  0.8761161848634273  0.6545120424125728
  0.0792411357178520  0.1241006516729882  0.1546960165065765
  0.0791592758999207  0.1238838827770583  0.6545116975606888
  0.0778835142204641  0.3727453813730678  0.1546832938164611
  0.0791613084049096  0.3712348437858560  0.6564330717131868
  0.1722678748011306  0.7512167360348436  0.3396834698016664
  0.1709733663418948  0.7523776970293384  0.8395187382856937
  0.1712490875554161  0.0000000777134090  0.3418881502095702
  0.1712063740642306  0.9999996280526418  0.8415932845676719
  0.1722681345702830  0.2487831261353173  0.3396832066658697
  0.1709733565789026  0.2476215781071628  0.8395187269156243
  0.1334923097493753  0.5000000601164203  0.4293898190437757
  0.1711169385699696  0.5000000968108154  0.8361714424295645
  0.0447901698997022  0.7524573348501461  0.3953881192312073
  0.0448351680668841  0.7506277960817815  0.8951954597135571
  0.0445316470636078  0.0000000426936424  0.3951583468880880
  0.0451412500979873  0.9999999482674440  0.8950948091941660
  0.0447900043627562  0.2475423902301770  0.3953882531259230
  0.0448347951825330  0.2493723140041987  0.8951957577407031
  0.0244619665495865  0.5000002322260784  0.3848872841352408
  0.0458899825522520  0.4999999416465855  0.8957536034656471
  0.2049805326337878  0.6313378991481207  0.0910100755975660
  0.2120861272568673  0.6283901863365842  0.6130396611675097
  0.2054812875499940  0.8764884536548837  0.1011626611203535
  0.2060796797205541  0.8759505949367121  0.6011673507553441
  0.2054814703358480  0.1235113932961670  0.1011627052959180
  0.2060794497779114  0.1240493413048992  0.6011673866003919
  0.2049806383330664  0.3686622539008012  0.0910096302239548
  0.2120862613484602  0.3716098774218698  0.6130397101230800
  0.3306361852488398  0.7511221227441022  0.1588020014764343
  0.3327754685547252  0.7529722411209202  0.6622199547153922
  0.3303595555964896  0.0000000327574199  0.1577935322343139
  0.3309647451236646  0.0000002320608843  0.6586171722990695
  0.3306359909825692  0.2488778866277800  0.1588022534954835
  0.3327755363259929  0.2470277196237543  0.6622200328755834
  0.3308031963189100  0.4999999578706849  0.1623506580476474
  0.3331789483988647  0.4999998071944631  0.6626124646831365
  0.4229017817327798  0.6251475305624147  0.3440375074153147
  0.4228248049462043  0.6253147798598189  0.8470709861963701
  0.4217066499465557  0.8751177713611340  0.3448407766267622
  0.4227158814478369  0.8755328687748639  0.8461876643310160
  0.4217064717740425  0.1248822837740101  0.3448408414934164
  0.4227156986959539  0.1244671562483778  0.8461875572468895
  0.4229019466918626  0.3748524143025038  0.3440376504231532
  0.4228249367635347  0.3746851951169354  0.8470707892225195
  0.3020589893344321  0.6290629396439520  0.4055293792317095
  0.2960894035537738  0.6247806525898850  0.8991515963293885
  0.2956871079681643  0.8753248890603917  0.3986787582290586
  0.2954309850038877  0.8749170152602040  0.8976969795422379
  0.2956869150862654  0.1246753590821637  0.3986791989076917
  0.2954309404025660  0.1250831714891339  0.8976967184669521
  0.3020592536482723  0.3709368122134477  0.4055290630887790
  0.2960890638215918  0.3752191606608772  0.8991519030976952
  0.4566327155647354  0.7503947092774430  0.1046612135812665
  0.4560894057916427  0.7501174609325646  0.6038946517637827
  0.4562079786694686  0.0000001332227271  0.1047816567979023
  0.4558958290040900  0.0000000443650165  0.6038825136003042
  0.4566327483037167  0.2496052564295174  0.1046613082065448
  0.4560897177391594  0.2498826052788936  0.6038944579106571
  0.4568161910901782  0.4999999010703391  0.1047793224079059
  0.4561394091222983  0.4999998894235134  0.6037278654632423
  0.5801534697549007  0.1247792042492488  0.1585702495439446
  0.5799055544028409  0.1248989294245410  0.6579558174027142
  0.5802119301380322  0.3747973058981540  0.1582831230592657
  0.5799204419203157  0.3748980477408673  0.6582917236186615
  0.5802122779475360  0.6252024771120399  0.1582833308124759
  0.5799206357567293  0.6251018544458569  0.6582916497454517
  0.5801534440975791  0.8752210127405557  0.1585703836510771
  0.5799052647649592  0.8751011683887568  0.6579559834837370
  0.6711671832775749  0.0000000456489744  0.3441624841934603
  0.6711333924583084  0.9999998564148953  0.8430171012202717
  0.6709994669220312  0.2496704024461432  0.3438624373366579
  0.6711675466574346  0.2499239980343027  0.8431663083291560
  0.6707906178341109  0.4999999239118509  0.3437364505904288
  0.6712070752064800  0.4999998515343620  0.8432381063740300
  0.6709995223911964  0.7503296279930365  0.3438627390590667
  0.6711677147256322  0.7500762940164599  0.8431663311832230
  0.5455223168542161  0.9999998842853230  0.3985443386989300
  0.5463842511347302  0.0000001575177464  0.8991280528358466
  0.5459551548005096  0.2496093871369691  0.3987782957769513
  0.5462544520489087  0.2498308147815764  0.8989765776378605
  0.5462728987021215  0.5000001771331739  0.3990581413270542
  0.5462454166225962  0.4999999243709183  0.8989882782196276
  0.5459550120420006  0.7503905514445288  0.3987780603963474
  0.5462545324511748  0.7501691033297606  0.8989766554993538
  0.7047328638434314  0.1247902752943334  0.1026472007629926
  0.7055369133692815  0.1250277904589897  0.6031759988258417
  0.7048206582956307  0.3749658300935013  0.1026214838245426
  0.7052644780952256  0.3748759218657661  0.6031229014222070
  0.7048203512861231  0.6250341395952602  0.1026216308898217
  0.7052643950316998  0.6251238609301791  0.6031230132047192
  0.7047327604968023  0.8752097550169047  0.1026473476745316
  0.7055371701463664  0.8749724267450649  0.6031760241440284
  0.8284676500687728  0.0000001912616341  0.1554525641497846
  0.8293533632260918  0.9999999233401340  0.6561250538853676
  0.8279856300529801  0.2485849320769807  0.1538010136285386
  0.8294335046466428  0.2500818725827429  0.6560340105182056
  0.8282189625280222  0.4999998622292239  0.1544503961117130
  0.8289449388372373  0.4999998671056858  0.6566375245614682
  0.8279858572840141  0.7514150144321698  0.1538013519232499
  0.8294332025608055  0.7499183369714144  0.6560341134089505
  0.9196725445966584  0.1239529169093000  0.3409427089460437
  0.9209158643231690  0.1247203084097545  0.8417708203253648
  0.9161573020609725  0.3707538404612004  0.3400098480720199
  0.9210476353380610  0.3745868847098837  0.8409985194875785
  0.9161572129843013  0.6292462296524722  0.3400099167820211
  0.9210479240966674  0.6254133019280885  0.8409987826996511
  0.9196725086979148  0.8760470129770833  0.3409426214086708
  0.9209156919227710  0.8752795049522877  0.8417704686590918
  0.7950686675719841  0.1247676412060550  0.3972521201102118
  0.7949055703970381  0.1248174222968369  0.8957600934516525
  0.7938853144179551  0.3748025860389911  0.3978608865900340
  0.7950502221984030  0.3749167685561152  0.8962048461693828
  0.7938853304476713  0.6251972457762017  0.3978612935899647
  0.7950506228829872  0.6250830655667632  0.8962050891587412
  0.7950688721314966  0.8752325269788274  0.3972519208145136
  0.7949053158396532  0.8751827435802748  0.8957602476601456
  0.9552850137029073  0.9999997670790890  0.1023732270401561
  0.9549034052512914  0.0000001705656274  0.6012189146105021
  0.9544779276261166  0.2495749157254541  0.1021287758799695
  0.9549799806419724  0.2497078499961762  0.6003329910807591
  0.9536327607552727  0.4999999652510425  0.0998591296260732
  0.9545767722441129  0.5000001672616534  0.6021578677256010
  0.9544782050516516  0.7504253519444269  0.1021291469050291
  0.9549798838580156  0.7502918121765436  0.6003329120888421
  0.2486571627042679  0.7521651380915075  0.1272246393198965
  0.2512368349347728  0.7540628119399817  0.6312810204705058
  0.2486037436539541  0.9999999801902604  0.1280477451049037
  0.2489738026069856  0.9999998652228541  0.6278076283638455
  0.2486571629545992  0.2478346671832889  0.1272246283926946
  0.2512369791205419  0.2459375413008493  0.6312806851137892
  0.2432315999607436  0.5000002145349782  0.1390399476148417
  0.2515165165843096  0.4999997815362747  0.6344663853362906
  0.9968172214323939  0.6346869773868895  0.3666394337507312
  0.0032827450125201  0.6244286590732306  0.8687470265518717
  0.0016631054444076  0.8757372322256320  0.3700916755554421
  0.0024952671596515  0.8752932588870261  0.8693022107018638
  0.0016630332347631  0.1242629400835696  0.3700912673173410
  0.0024948748896697  0.1247066683108383  0.8693019394600046
  0.9968175728896537  0.3653128503039623  0.3666396020945270
  0.0032829075048756  0.3755714137288478  0.8687470182513399
  0.0879831327532424  0.7466673118218814  0.2828612472038017
  0.0871501614106474  0.7502392613663916  0.7796623224053569
  0.0873218574055231  0.0000000598760153  0.2810653428053354
  0.0874326942724480  0.9999998547557851  0.7799586690336628
  0.0879832967554233  0.2533326665580571  0.2828613382942366
  0.0871499050509992  0.2497609878713710  0.7796621280553488
  0.0793078695937503  0.4999999617440309  0.2874791660303720
  0.0860921085407862  0.4999998960064360  0.7726990901923676
  0.1632765892427170  0.6328005070999136  0.2097468531729505
  0.1633395798838074  0.6232908133804539  0.7135465030631112
  0.1634211014734093  0.8750424470273290  0.2164528068618172
  0.1635995123052165  0.8743268111504456  0.7155230587186014
  0.1634213184851335  0.1249576463606757  0.2164526191423737
  0.1635996955597445  0.1256730447845688  0.7155231080801190
  0.1632763333193350  0.3671993995120780  0.2097471633894361
  0.1633396820064769  0.3767093306845036  0.7135463337534249
  0.1708992627215511  0.6293457220806341  0.4562129148174638
  0.1666177589182202  0.6247649773288940  0.9380693737071025
  0.1693629566222423  0.8738842386952032  0.4440094549323848
  0.1682477603881031  0.8750457460493246  0.9440730558821842
  0.1693628612410318  0.1261157095902742  0.4440094431265751
  0.1682478868650725  0.1249542708253422  0.9440729902294920
  0.1708990117172846  0.3706543296339130  0.4562129799709571
  0.1666177267863053  0.3752350057964773  0.9380694996600537
  0.0814590174314995  0.7506631766646610  0.0527313245827570
  0.0818623840812471  0.7498882393575186  0.5520047499088893
  0.0822117759102014  0.0000000091260546  0.0524844056859020
  0.0826394683220800  0.9999999423723835  0.5518397904660490
  0.0814589145912246  0.2493368078962615  0.0527313401585004
  0.0818625889691369  0.2501120048169729  0.5520048699091479
  0.0820604531719009  0.5000000063129946  0.0562522779986946
  0.0818128597083928  0.4999998134530941  0.5320270532337807
  0.4990490532702969  0.6252202631273941  0.1303101276126085
  0.4985631470851975  0.6250428874445650  0.6292719855144360
  0.4989962054485905  0.8753465284643076  0.1302472158918952
  0.4985827701990678  0.8750781913317121  0.6291163610929096
  0.4989961713285628  0.1246534807952747  0.1302472577974036
  0.4985825298268443  0.1249215624110172  0.6291159991053283
  0.4990492104453627  0.3747797276130598  0.1303101649199888
  0.4985635259379085  0.3749568588126709  0.6292722136596685
  0.2535540750241542  0.7476104742660279  0.3741099023039168
  0.2521392169317775  0.7491829470427119  0.8712821297222541
  0.2523498759651532  0.9999999556301375  0.3714098510989477
  0.2521803531657535  0.9999999061581732  0.8709869337243482
  0.2535539308169623  0.2523893478665900  0.3741097264254548
  0.2521389771913829  0.2508173048846932  0.8712820770687352
  0.2630140569097952  0.5000002222372260  0.3924169677268595
  0.2521229715820586  0.4999998419144163  0.8748649522231132
  0.3382053779089669  0.6257773537271671  0.2825749572759105
  0.3382608911312531  0.6252563820609895  0.7860620400485548
  0.3371270285177501  0.8747061752326977  0.2828181579314113
  0.3379876509713651  0.8757181448335543  0.7841459706056908
  0.3371267264789721  0.1252939833477278  0.2828179161344289
  0.3379874216138828  0.1242818833125778  0.7841460187729778
  0.3382056211891149  0.3742224876924144  0.2825752669236917
  0.3382610296398568  0.3747435897928912  0.7860622257703785
  0.4139382863953523  0.7499894547033485  0.2185710474587439
  0.4151760891364939  0.7511984378828641  0.7214987558808221
  0.4135576224969443  0.0000002280001752  0.2188649065870416
  0.4142566845215844  0.9999999858571584  0.7197758901102387
  0.4139381484494061  0.2500104923153614  0.2185710078092727
  0.4151763566805255  0.2488016017616612  0.7214986471550719
  0.4141981966399672  0.4999998249811242  0.2190045375332184
  0.4152419755700454  0.4999999744982944  0.7216243533657132
  0.4182168121531268  0.7494412240521025  0.4466596227781892
  0.4188705200492520  0.7501935438798207  0.9481398109458807
  0.4185330923901189  0.0000001653528301  0.4466397383288238
  0.4191538322410352  0.9999997488565171  0.9477702589365151
  0.4182167291373068  0.2505587441892315  0.4466597649182134
  0.4188702280506915  0.2498060368492151  0.9481395948494493
  0.4182679607397892  0.4999998664058083  0.4465001014955459
  0.4189198092810054  0.5000001704144381  0.9484420251849793
  0.3291860043807296  0.6232926409849269  0.0575599428527729
  0.3355774319516930  0.6274673532214907  0.5624774316508745
  0.3319371122666948  0.8749242425710310  0.0547226437036678
  0.3330156969832215  0.8756903969762914  0.5553278369448592
  0.3319373153873866  0.1250759106317193  0.0547225732137286
  0.3330159643588330  0.1243094702976007  0.5553276117263736
  0.3291859574816406  0.3767072058122822  0.0575599553232385
  0.3355774272709146  0.3725327795046363  0.5624776600207095
  0.7477731275419834  0.9999997901325344  0.1277687492713993
  0.7485693830392843  0.9999999714758943  0.6286574082646718
  0.7477529144845562  0.2498556065070096  0.1278844803574598
  0.7485784076865946  0.2501859166238046  0.6283928539350274
  0.7478249098945075  0.4999997674735539  0.1278760609399317
  0.7482922634851031  0.4999999986571169  0.6283029190992890
  0.7477529677406934  0.7501448358869259  0.1278843575284666
  0.7485780618787677  0.7498141132432166  0.6283929915843718
  0.5024489630824523  0.1251494066457055  0.3729087073353357
  0.5032831136114082  0.1248225499309020  0.8739096094839823
  0.5030910799477287  0.3750561785929933  0.3731968813989048
  0.5032405618734885  0.3749181114374994  0.8740493123308105
  0.5030911543122646  0.6249438280908363  0.3731972463888772
  0.5032402267482312  0.6250816932930022  0.8740491648817815
  0.5024491671328964  0.8748505866704187  0.3729086554558323
  0.5032832662670172  0.8751776453385890  0.8739095162461666
  0.5872851895033540  0.0000001026817458  0.2834594871264126
  0.5873535151391739  0.0000002607375293  0.7826705933503996
  0.5873339659621590  0.2498515821348299  0.2832425592225961
  0.5872989020515511  0.2500266191231378  0.7827448055947946
  0.5873757280212775  0.5000000847055688  0.2831584158949065
  0.5872963844349555  0.4999998047749656  0.7828209001912766
  0.5873339649403559  0.7501482304778216  0.2832425053810710
  0.5872991196510362  0.7499738153643516  0.7827449125455309
  0.6637099557537112  0.1249134348704251  0.2190024992823091
  0.6637558570773028  0.1251094896376420  0.7182833848239438
  0.6637167096447472  0.3748704716130301  0.2188132428821877
  0.6637463541992764  0.3750003881288696  0.7185190855387869
  0.6637166556207619  0.6251297249815784  0.2188131577600561
  0.6637464135602263  0.6249995330292696  0.7185186662159277
  0.6637096803269258  0.8750863685349830  0.2190027261025073
  0.6637556593491614  0.8748905892041715  0.7182838072927735
  0.6685816326551088  0.1249424897281200  0.4464154853871145
  0.6684943916106670  0.1249944397262930  0.9454397350280087
  0.6685943031005007  0.3748499448538087  0.4461562070135983
  0.6685383173652135  0.3750002483754685  0.9455065579309790
  0.6685939218023930  0.6251500243799694  0.4461559302128862
  0.6685378791093464  0.6249998637117749  0.9455063225111887
  0.6685820389151513  0.8750575410381314  0.4464155378846337
  0.6684944379828816  0.8750054481864333  0.9454399385624922
  0.5828520005922883  0.9999998808950110  0.0561264196906035
  0.5821352462529301  0.0000002131128127  0.5554388615396266
  0.5826341101370677  0.2498129539109915  0.0560517807781532
  0.5822431202017304  0.2500021355839780  0.5557182962065152
  0.5825994492356437  0.5000000511592759  0.0560737734452179
  0.5823701349579770  0.5000000622889615  0.5559893949776874
  0.5826343085409423  0.7501871140347069  0.0560517188002815
  0.5822433671301459  0.7499975890142241  0.5557184959017871
  0.9984979961613902  0.1253917603981144  0.1288089708807297
  0.9983729916141232  0.1250045717517952  0.6258778533995515
  0.9975162477184012  0.3752767181983807  0.1275235095517188
  0.9987820578451122  0.3757207463921480  0.6224644854117720
  0.9975163143678285  0.6247234475725241  0.1275234980158017
  0.9987822018235333  0.6242790926485794  0.6224643858229563
  0.9984977302885947  0.8746080738309763  0.1288090374101392
  0.9983732812008529  0.8749955892074736  0.6258780821062762
  0.7522871596395189  0.0000000709802777  0.3722984844145478
  0.7522216612237431  0.0000001285105569  0.8704809176617262
  0.7520911036340799  0.2494373844486684  0.3720269510331951
  0.7523999175853310  0.2500068587270715  0.8712501041068788
  0.7517360841269212  0.5000000145566119  0.3719101262008922
  0.7524843946511254  0.4999999128825294  0.8713450870254995
  0.7520906959866175  0.7505625300144104  0.3720272272658425
  0.7523998156789721  0.7499930998798530  0.8712498735102738
  0.8362724228074101  0.1243824785460392  0.2806458987800775
  0.8376131710698382  0.1252896305292736  0.7817919643352935
  0.8354513775270648  0.3754502742354233  0.2812521706654060
  0.8374519637971108  0.3750463059717072  0.7815282055991066
  0.8354511436725788  0.6245498082619566  0.2812518688873617
  0.8374517860768226  0.6249537259334477  0.7815283350910651
  0.8362727074165108  0.8756174389565268  0.2806462361033206
  0.8376134857013520  0.8747103375655946  0.7817918897280718
  0.9131948171681553  0.0000002012204092  0.2167620451527439
  0.9138069269518122  0.0000000691482711  0.7171830267993987
  0.9117983565434171  0.2483061706140960  0.2155362500209869
  0.9142072973737914  0.2509138915584727  0.7168808882922367
  0.9129044993621471  0.5000001445324145  0.2165508273651229
  0.9138575953207798  0.4999998036514697  0.7168208777082301
  0.9117987332873367  0.7516934836330503  0.2155358461868368
  0.9142076335191394  0.7490862356417680  0.7168805851679413
  0.9182501601220671  0.0000001650851829  0.4443979672367599
  0.9195889650080341  0.9999998186011751  0.9450164755395897
  0.9162553533496715  0.2476269619353974  0.4449079497949046
  0.9197204718528218  0.2501793095125194  0.9442696041250573
  0.9221101652039478  0.5000000174375288  0.4425406738247892
  0.9191691083536888  0.4999999251716503  0.9427336304192256
  0.9162554514851374  0.7523728555418485  0.4449077491373873
  0.9197204958244094  0.7498209467146447  0.9442695307408360
  0.8318421322954529  0.1243063180347537  0.0527552150755942
  0.8323638882798223  0.1250391882449879  0.5542775187354831
  0.8320077434234155  0.3747533137323161  0.0536043565384659
  0.8326089733962465  0.3756040147814763  0.5538262870402739
  0.8320077238720293  0.6252467189600042  0.0536039619387708
  0.8326087387708430  0.6243960683811367  0.5538264732685725
  0.8318420250962256  0.8756936492729154  0.0527552283682998
  0.8323638464094290  0.8749607285924376  0.5542776549861170
