Au1 Ga128 O192
   1.00000000000000
    24.9361379999999997    0.0000000000000000    0.0000000000000000
     0.0000000000000000   12.3494290000000007    0.0000000000000000
    -2.7833760000000001    0.0000000000000000   11.4316289999999992
   Co   Ga   O
     1   128   192
Direct
  0.3656850207083895  0.6250000000000000  0.4424435234042107
  0.0774010106464198  0.6250000000000000  0.1569388223821167
  0.0766831084392126  0.6250000000000000  0.6601962434189964
  0.0771125765168341  0.8773365733429923  0.1542974628917051
  0.0787538812031803  0.8750255708180220  0.6575924102953105
  0.0780098866650068  0.1250000000000000  0.1563485155457974
  0.0787318372303765  0.1250000000000000  0.6564563295284317
  0.0771125765168341  0.3726634266570084  0.1542974628917051
  0.0787538812031803  0.3749744291819762  0.6575924102953105
  0.1665707966050089  0.7583485732158596  0.3351617933134541
  0.1693351261334204  0.7507883731658762  0.8476558965023929
  0.1700585480765349  0.0017682697634362  0.3423753384069854
  0.1701841492593898  0.0005471366368045  0.8426366210373903
  0.1700585480765349  0.2482317302365638  0.3423753384069854
  0.1701841492593898  0.2494518633631979  0.8426366210373903
  0.1665707966050089  0.4916514267841403  0.3351617933134541
  0.1693351261334204  0.4992116268341237  0.8476558965023929
  0.0434698493172136  0.7501048233306955  0.4001087063219995
  0.0435185201543992  0.7503134290698343  0.8986885584049851
  0.0445146751268301  0.0001008137068257  0.3977026266959159
  0.0441028122034471  0.0004110102084575  0.8963063195345191
  0.0445146751268301  0.2498991862931743  0.3977026266959159
  0.0441028122034471  0.2495889897915426  0.8963063195345191
  0.0434698493172136  0.4998951766693038  0.4001087063219995
  0.0435185201543992  0.4996865709301661  0.8986885584049851
  0.2051377974623333  0.6250000000000000  0.1068403365215363
  0.2023321957921820  0.6250000000000000  0.6178779959816324
  0.2052946978141332  0.8754932135408589  0.1032463962091261
  0.2034693905435737  0.8758969037664612  0.6019783041042227
  0.2049909708054908  0.1250000000000000  0.1028530242148708
  0.2048926407084483  0.1250000000000000  0.6031937742387904
  0.2052946978141332  0.3745067864591413  0.1032463962091261
  0.2034693905435737  0.3741030962335388  0.6019783041042227
  0.3289540060581216  0.7494210865252914  0.1575280266775076
  0.3287203615730653  0.7548432135989070  0.6679705950313043
  0.3292705268151198  0.0004305743529765  0.1566376953380657
  0.3286919602191734  0.0008325518438376  0.6559421979147466
  0.3292705268151198  0.2495694256470235  0.1566376953380657
  0.3286919602191734  0.2491674481561625  0.6559421979147466
  0.3289540060581216  0.5005789134747086  0.1575280266775076
  0.3287203615730653  0.4951567864010860  0.6679705950313043
  0.4300184964446475  0.6250000000000000  0.3089230879143589
  0.4219496005537542  0.6250000000000000  0.8402138697531195
  0.4212972825271178  0.8770827307570475  0.3412516496927028
  0.4217032193637083  0.8769886834982764  0.8426201559796964
  0.4207677569271274  0.1250000000000000  0.3435759332168725
  0.4207161656531225  0.1250000000000000  0.8433066887060583
  0.4212972825271178  0.3729172692429525  0.3412516496927028
  0.4217032193637083  0.3730113165017230  0.8426201559796964
  0.2581447002150528  0.6250000000000000  0.4404434412008226
  0.2939964096402934  0.6250000000000000  0.8991727426752575
  0.2951010970628120  0.8744649695821948  0.3973649507035760
  0.2938508616137046  0.8749793660758850  0.8991430498276377
  0.2941753607181455  0.1250000000000000  0.3959874113060610
  0.2946669027733811  0.1250000000000000  0.8969631804590279
  0.2951010970628120  0.3755350304178064  0.3973649507035760
  0.2938508616137046  0.3750206339241149  0.8991430498276377
  0.4579991337669712  0.7525658532816976  0.0954842100897446
  0.4582309668147784  0.7508693029245307  0.6054110169359719
  0.4554355954015249  0.0008407389478921  0.1025340503379774
  0.4553742079263028  0.0004382525773515  0.6027751595574166
  0.4554355954015249  0.2491592610521079  0.1025340503379774
  0.4553742079263028  0.2495617474226485  0.6027751595574166
  0.4579991337669712  0.4974341467183021  0.0954842100897446
  0.4582309668147784  0.4991306970754695  0.6054110169359719
  0.5799035195359615  0.1250000000000000  0.1577681302709495
  0.5799849786591326  0.1250000000000000  0.6579990139781350
  0.5806161645436514  0.3738029933245421  0.1574306983244064
  0.5807139213159620  0.3739311811785929  0.6588088369291016
  0.5804678754891428  0.6250000000000000  0.1579814026430577
  0.5811303078944063  0.6250000000000000  0.6589850012156787
  0.5806161645436514  0.8761970066754590  0.1574306983244064
  0.5807139213159620  0.8760688188214070  0.6588088369291016
  0.6711550896722841  0.0002367203412354  0.3440494403489875
  0.6715216904086935  0.0002747892196636  0.8440680214866156
  0.6711550896722841  0.2497632796587646  0.3440494403489875
  0.6715216904086935  0.2497252107803364  0.8440680214866156
  0.6715652233681245  0.4998257179104766  0.3435094796703212
  0.6716565389189707  0.4997712095651359  0.8442096156780561
  0.6715652233681245  0.7501742820895235  0.3435094796703212
  0.6716565389189707  0.7502287904348656  0.8442096156780561
  0.5451768453350905  1.0004469613813629  0.3978769969439665
  0.5454245058664616  0.0005126916835210  0.8976566771164638
  0.5451768453350905  0.2495530386186378  0.3978769969439665
  0.5454245058664616  0.2494873083164791  0.8976566771164638
  0.5478941802613548  0.4974298478456952  0.3991672870458486
  0.5459706541852847  0.4997465905403485  0.8975326256817453
  0.5478941802613548  0.7525701521543046  0.3991672870458486
  0.5459706541852847  0.7502534094596515  0.8975326256817453
  0.7051727855821612  0.1250000000000000  0.1032055559167111
  0.7053449113803207  0.1250000000000000  0.6031134281259504
  0.7055316082618106  0.3747646074841733  0.1029370234092808
  0.7054030749167493  0.3748498350784946  0.6028281331735126
  0.7054919511142523  0.6250000000000000  0.1028535946460914
  0.7054093443957739  0.6250000000000000  0.6025658742192508
  0.7055316082618106  0.8752353925158260  0.1029370234092808
  0.7054030749167493  0.8751501649215055  0.6028281331735126
  0.8291263846707569  0.0001822403049656  0.1576320958195195
  0.8291958795859670  0.0000896477350017  0.6570704577874877
  0.8291263846707569  0.2498177596950344  0.1576320958195195
  0.8291958795859670  0.2499103522649982  0.6570704577874877
  0.8291162197431945  0.4998527290392007  0.1576460759995250
  0.8290448273401806  0.4998912056202280  0.6575448381554515
  0.8291162197431945  0.7501472709608000  0.1576460759995250
  0.8290448273401806  0.7501087943797728  0.6575448381554515
  0.9204301724540627  0.1250000000000000  0.3434077680875371
  0.9202086593325701  0.1250000000000000  0.8425469713504445
  0.9201688375994364  0.3747004389696348  0.3432076786444042
  0.9200903338107541  0.3747096502739639  0.8429810337430359
  0.9199227420239542  0.6250000000000000  0.3433467122634230
  0.9200144762792097  0.6250000000000000  0.8432766997763875
  0.9201688375994364  0.8752995610303659  0.3432076786444042
  0.9200903338107541  0.8752903497260371  0.8429810337430359
  0.7949166976065815  0.1250000000000000  0.3978450378253990
  0.7953129056570374  0.1250000000000000  0.8980866917218066
  0.7949977126210935  0.3748539286750065  0.3980385534978754
  0.7952069549518247  0.3748527562741700  0.8981881048525455
  0.7950806720946465  0.6250000000000000  0.3983168584745749
  0.7951886705827257  0.6250000000000000  0.8983909322441938
  0.7949977126210935  0.8751460713249929  0.3980385534978754
  0.7952069549518247  0.8751472437258295  0.8981881048525455
  0.9539879969413732  0.0003891672234071  0.1024047304385601
  0.9548955355366744  0.0000077577930338  0.6028358931290315
  0.9539879969413732  0.2496108327765929  0.1024047304385601
  0.9548955355366744  0.2499922422069663  0.6028358931290315
  0.9540396896077369  0.4998997686905092  0.1028817448762965
  0.9540049128912564  0.4994233684829583  0.6029105083590669
  0.9540396896077369  0.7501002313094914  0.1028817448762965
  0.9540049128912564  0.7505766315170406  0.6029105083590669
  0.2479481120201890  0.7501106691985735  0.1281553369460855
  0.2466281795045528  0.7487569018460122  0.6257712291772317
  0.2483215263150944  0.0001022664625869  0.1297015867790242
  0.2476702683056246  0.9993578979200241  0.6282327582388838
  0.2483215263150944  0.2498977335374133  0.1297015867790242
  0.2476702683056246  0.2506421020799765  0.6282327582388838
  0.2479481120201890  0.4998893308014262  0.1281553369460855
  0.2466281795045528  0.5012430981539878  0.6257712291772317
  0.0012834768227918  0.6250000000000000  0.3732386912032887
  0.0013587374983472  0.6250000000000000  0.8725551405015824
  0.0016943426384692  0.8752453815706313  0.3726740798448367
  0.0014176283152678  0.8755168889084372  0.8721573102749535
  0.0018752078357967  0.1250000000000000  0.3720783534954968
  0.0013935702025020  0.1250000000000000  0.8707118193766420
  0.0016943426384692  0.3747546184293686  0.3726740798448367
  0.0014176283152678  0.3744831110915617  0.8721573102749535
  0.0859497840115320  0.7485938966638922  0.2848757473282165
  0.0860409061748154  0.7504126485919834  0.7844096571578101
  0.0862610225650968  0.0002637377458557  0.2816523588493603
  0.0867435287926943  1.0000407939401572  0.7823889590427909
  0.0862610225650968  0.2497362622541443  0.2816523588493603
  0.0867435287926943  0.2499592060598426  0.7823889590427909
  0.0859497840115320  0.5014061033361078  0.2848757473282165
  0.0860409061748154  0.4995873514080160  0.7844096571578101
  0.1621340832985865  0.6250000000000000  0.2200050091777089
  0.1609240977418520  0.6250000000000000  0.7253114551503043
  0.1616561868324130  0.8770407180414334  0.2153392681240039
  0.1628903990770120  0.8742038625897747  0.7187385506796263
  0.1630635593537677  0.1250000000000000  0.2179686959664737
  0.1631550158805436  0.1250000000000000  0.7180824499552571
  0.1616561868324130  0.3729592819585671  0.2153392681240039
  0.1628903990770120  0.3757961374102258  0.7187385506796263
  0.1798477498381594  0.6250000000000000  0.4502177630251592
  0.1682710522708511  0.6250000000000000  0.9496191116733638
  0.1666701319478504  0.8769584842512733  0.4451236675167918
  0.1683152181157967  0.8761768950115359  0.9468062504051753
  0.1684783618806237  0.1250000000000000  0.4459722227983570
  0.1685580781942196  0.1250000000000000  0.9459613445798611
  0.1666701319478504  0.3730415157487262  0.4451236675167918
  0.1683152181157967  0.3738231049884639  0.9468062504051753
  0.0807972710524837  0.7503588349631206  0.0560106700310437
  0.0827200004352026  0.7481226519485975  0.5561991029319786
  0.0811252757420734  0.0009686724633339  0.0534452530837366
  0.0819495977085173  0.9996345343874274  0.5547496925462952
  0.0811252757420734  0.2490313275366660  0.0534452530837366
  0.0819495977085173  0.2503654656125728  0.5547496925462952
  0.0807972710524837  0.4996411650368789  0.0560106700310437
  0.0827200004352026  0.5018773480514025  0.5561991029319786
  0.4982297516467979  0.6250000000000000  0.1293274204407303
  0.4995723727476247  0.6250000000000000  0.6296889137464367
  0.4992030444600145  0.8774032503692769  0.1273993213635061
  0.4987454889043527  0.8762699306637468  0.6283660943622902
  0.4982562442070255  0.1250000000000000  0.1286027988772401
  0.4979971726894152  0.1250000000000000  0.6287185132477653
  0.4992030444600145  0.3725967496307233  0.1273993213635061
  0.4987454889043527  0.3737300693362533  0.6283660943622902
  0.2484361156457757  0.7549619799381756  0.3644031265196866
  0.2511038884404750  0.7497620284795393  0.8695276328553804
  0.2519246414072743  0.9992091925975436  0.3714061779581306
  0.2517438084433779  0.0001326605498188  0.8717372152965083
  0.2519246414072743  0.2507908074024548  0.3714061779581306
  0.2517438084433779  0.2498673394501812  0.8717372152965083
  0.2484361156457757  0.4950380200618250  0.3644031265196866
  0.2511038884404750  0.5002379715204607  0.8695276328553804
  0.3432600902967290  0.6250000000000000  0.2752769660763176
  0.3361763807632611  0.6250000000000000  0.7832389515757564
  0.3378958371516078  0.8724658921764971  0.2836648217633414
  0.3366142764445236  0.8751468737514678  0.7843601487763637
  0.3369448201568733  0.1250000000000000  0.2821446002272927
  0.3365831692096689  0.1250000000000000  0.7813356330048723
  0.3378958371516078  0.3775341078235030  0.2836648217633414
  0.3366142764445236  0.3748531262485326  0.7843601487763637
  0.4165241787582210  0.7543322673908660  0.2127132240417424
  0.4125121654267599  0.7479015994750444  0.7141267559969873
  0.4131739230266930 -0.0001038297679095  0.2175802779840804
  0.4126422967934115  0.9989832080978509  0.7170072920042744
  0.4131739230266930  0.2501038297679091  0.2175802779840804
  0.4126422967934115  0.2510167919021497  0.7170072920042744
  0.4165241787582210  0.4956677326091347  0.2127132240417424
  0.4125121654267599  0.5020984005249556  0.7141267559969873
  0.4189124201390869  0.7457716059300243  0.4460948683756912
  0.4187916182108695  0.7502957523863244  0.9415245321212423
  0.4179878493399609  0.9992759072614565  0.4457763277596222
  0.4180068804522117  0.0001206461449267  0.9455195866675876
  0.4179878493399609  0.2507240927385429  0.4457763277596222
  0.4180068804522117  0.2498793538550735  0.9455195866675876
  0.4189124201390869  0.5042283940699755  0.4460948683756912
  0.4187916182108695  0.4997042476136760  0.9415245321212423
  0.3322916645772999  0.6250000000000000  0.0537300503168528
  0.3240929406631245  0.6250000000000000  0.5577102403836154
  0.3314723328604017  0.8743161669855072  0.0555109969065696
  0.3304840176493936  0.8723329187093587  0.5555449898648723
  0.3317685829105340  0.1250000000000000  0.0540446382231996
  0.3312754741974455  0.1250000000000000  0.5533569679755271
  0.3314723328604017  0.3756838330144924  0.0555109969065696
  0.3304840176493936  0.3776670812906404  0.5555449898648723
  0.7480644752645056  0.0002428511290259  0.1288595683671269
  0.7480571066659716  0.0000390951436579  0.6285335923154611
  0.7480644752645056  0.2497571488709741  0.1288595683671269
  0.7480571066659716  0.2499609048563422  0.6285335923154611
  0.7480505984594741  0.4999504179833593  0.1289032740014235
  0.7479627711343221  0.4999795507732656  0.6285595502450483
  0.7480505984594741  0.7500495820166397  0.1289032740014235
  0.7479627711343221  0.7500204492267346  0.6285595502450483
  0.5016410251613884  0.1250000000000000  0.3719882370787362
  0.5017025354326528  0.1250000000000000  0.8714046043164541
  0.5020694633701520  0.3757281040794804  0.3734086812197171
  0.5023221499868951  0.3749684153067946  0.8706989154899141
  0.5060548171194824  0.6250000000000000  0.3734186911828641
  0.5026978220063644  0.6250000000000000  0.8713461477195470
  0.5020694633701520  0.8742718959205198  0.3734086812197171
  0.5023221499868951  0.8750315846932064  0.8706989154899141
  0.5867489613771142  1.0000524134344284  0.2825762801595052
  0.5870095314239699  0.0002708028399541  0.7824059603145351
  0.5867489613771142  0.2499475865655709  0.2825762801595052
  0.5870095314239699  0.2497291971600459  0.7824059603145351
  0.5873783587339356  0.4992512192457831  0.2816588772833938
  0.5872984033818206  0.4996675384877954  0.7824289422907297
  0.5873783587339356  0.7507487807542156  0.2816588772833938
  0.5872984033818206  0.7503324615122050  0.7824289422907297
  0.6632568997711344  0.1250000000000000  0.2185603292011575
  0.6634343196440505  0.1250000000000000  0.7183893424142511
  0.6635385142097090  0.3746653754611354  0.2181221671593851
  0.6636978083368396  0.3746507327890926  0.7185917218402658
  0.6634542598685734  0.6250000000000000  0.2180010025543035
  0.6637692780846326  0.6250000000000000  0.7185393887574861
  0.6635385142097090  0.8753346245388651  0.2181221671593851
  0.6636978083368396  0.8753492672109059  0.7185917218402658
  0.6680365320062110  0.1250000000000000  0.4461578187313132
  0.6682875487816015  0.1250000000000000  0.9460317752843167
  0.6678806775575212  0.3751633038591167  0.4458716974030787
  0.6682275921910990  0.3749285337038594  0.9460224842011502
  0.6677917631653771  0.6250000000000000  0.4456158257902732
  0.6681465774527123  0.6250000000000000  0.9459404518409926
  0.6678806775575212  0.8748366961408831  0.4458716974030787
  0.6682275921910990  0.8750714662961393  0.9460224842011502
  0.5821691534910367  0.0007069372058939  0.0543989207939804
  0.5816906168430890  0.0003020377448734  0.5547996940219256
  0.5821691534910367  0.2492930627941061  0.0543989207939804
  0.5816906168430890  0.2496979622551264  0.5547996940219256
  0.5812183245985109  0.4998853527780159  0.0549627632754601
  0.5822001904232338  0.4993777413111599  0.5562572161852289
  0.5812183245985109  0.7501146472219842  0.0549627632754601
  0.5822001904232338  0.7506222586888404  0.5562572161852289
  0.9972715640350595  0.1250000000000000  0.1282003528852436
  0.9979988110399505  0.1250000000000000  0.6283862954986897
  0.9971008856237711  0.3747418124768500  0.1289849149194226
  0.9979398390440700  0.3754072645070871  0.6284270115889083
  0.9971074905729663  0.6250000000000000  0.1294812870995243
  0.9968320038919531  0.6250000000000000  0.6288798682772762
  0.9971008856237711  0.8752581875231512  0.1289849149194226
  0.9979398390440700  0.8745927354929128  0.6284270115889083
  0.7519664310974875  0.9999769440265077  0.3722802703173337
  0.7522994102235933  0.0001025350848044  0.8723749137228296
  0.7519664310974875  0.2500230559734922  0.3722802703173337
  0.7522994102235933  0.2498974649151957  0.8723749137228296
  0.7521217865024054  0.5000294430496142  0.3723316202087278
  0.7523050222313772  0.4999590396914321  0.8724970049709636
  0.7521217865024054  0.7499705569503858  0.3723316202087278
  0.7523050222313772  0.7500409603085677  0.8724970049709636
  0.8366667879166344  0.1250000000000000  0.2826762429099576
  0.8366826512487088  0.1250000000000000  0.7821057994820741
  0.8365726079916486  0.3748992965459961  0.2826243693599344
  0.8365955058596330  0.3749416161830670  0.7823685499942697
  0.8365609854884484  0.6250000000000000  0.2827471120654947
  0.8365955415077094  0.6250000000000000  0.7826164161513530
  0.8365726079916486  0.8751007034540047  0.2826243693599344
  0.8365955058596330  0.8750583838169333  0.7823685499942697
  0.9129943727361182  0.0000275677643478  0.2186193184706864
  0.9131306940341917  0.9998732954756918  0.7179229754401001
  0.9129943727361182  0.2499724322356525  0.2186193184706864
  0.9131306940341917  0.2501267045243087  0.7179229754401001
  0.9129437663850793  0.4999010749165545  0.2187976851938039
  0.9129129906398995  0.4998506553225347  0.7186185934902298
  0.9129437663850793  0.7500989250834460  0.2187976851938039
  0.9129129906398995  0.7501493446774656  0.7186185934902298
  0.9182226590187198  0.0000588881324960  0.4459451708065059
  0.9177737902447322  0.0001962599063482  0.9453690971166248
  0.9182226590187198  0.2499411118675040  0.4459451708065059
  0.9177737902447322  0.2498037400936516  0.9453690971166248
  0.9179975870937861  0.4997523696943988  0.4458144710683111
  0.9180080451545803  0.4998369653928806  0.9457587001177031
  0.9179975870937861  0.7502476303056015  0.4458144710683111
  0.9180080451545803  0.7501630346071190  0.9457587001177031
  0.8319978900694884  0.1250000000000000  0.0551822288224039
  0.8317455137424216  0.1250000000000000  0.5547612312264621
  0.8318431487594549  0.3749358697465342  0.0552861978887646
  0.8317377308865983  0.3751115235847973  0.5549907579198422
  0.8318831976192520  0.6250000000000000  0.0554362065581323
  0.8317756809510801  0.6250000000000000  0.5552849166180612
  0.8318431487594549  0.8750641302534661  0.0552861978887646
  0.8317377308865983  0.8748884764152022  0.5549907579198422