Co   Ga   O
   1.00000000000000
    24.9361379999999997    0.0000000000000000    0.0000000000000000
     0.0000000000000000   12.3494290000000007    0.0000000000000000
    -2.7833760000000001    0.0000000000000000   11.4316289999999992
   Co   Ga   O
     1   128   192
Direct
  0.1438847670086205  0.4999991194377255  0.4165377121916125
  0.0771081983773516  0.6266154320306692  0.1544674945094133
  0.0778272171025217  0.6259178597859144  0.6536601202245865
  0.0790876042725389  0.8756036126402525  0.1540753995946281
  0.0784510195457255  0.8754714616495776  0.6537990268079928
  0.0790876829783183  0.1243965133205055  0.1540744757850747
  0.0784510012815660  0.1245287450700129  0.6537977820699914
  0.0771082632301178  0.3733842010143933  0.1544656670240300
  0.0778272521916953  0.3740820679720297  0.6536585038657171
  0.1722559434959332  0.7543376701285988  0.3397106555526038
  0.1701848968691541  0.7524423752199564  0.8368544859209710
  0.1712311933387727  0.0000000944489012  0.3416107832354286
  0.1706605633183028  1.0000000420777491  0.8407507823860020
  0.1722558513633870  0.2456625588681329  0.3397102453970530
  0.1701849397787043  0.2475576097268433  0.8368528358666864
  0.1973930020891631  0.4999995342632633  0.2747178688000530
  0.1698958897315430  0.4999999533398254  0.8343798644449825
  0.0447637513827987  0.7511300380814839  0.3949334588585643
  0.0449339799750208  0.7502376956812379  0.8950336786154115
  0.0446221144550722  0.0000001596991767  0.3949913697207568
  0.0450735143682813  1.0000000046974820  0.8950481212443696
  0.0447636814992743  0.2488701048298795  0.3949315845799128
  0.0449340431853207  0.2497622118490066  0.8950322178904829
  0.0335950981918711  0.4999992290585633  0.3935523368102390
  0.0455208533746100  0.4999999889387075  0.8967496162452147
  0.2060443398403591  0.6336119293764633  0.0867343732967490
  0.2100359566295245  0.6282742081111584  0.6114787930290597
  0.2053534915370390  0.8771214878130891  0.1000836591735924
  0.2062070972674485  0.8759481276852754  0.6016093283914912
  0.2053533350283564  0.1228786788299214  0.1000829856803874
  0.2062071233901488  0.1240522692203440  0.6016083626081018
  0.2060445353916838  0.3663879516828923  0.0867340748487425
  0.2100361269981617  0.3717254629172022  0.6114780587265944
  0.3310164338290371  0.7515663737281381  0.1583003491361996
  0.3322023208867211  0.7526075669452901  0.6621084867009637
  0.3305222207503972  0.0000001454021400  0.1575145396444100
  0.3308950548733144  0.0000000914041456  0.6588356550429273
  0.3310164671754461  0.2484336980480503  0.1582989408037985
  0.3322023287055035  0.2473922731285991  0.6621068166902102
  0.3322450490573014  0.4999999740294374  0.1625616890793289
  0.3324065487464974  0.5000000100154393  0.6626665889955335
  0.4233693598325683  0.6252958373620764  0.3440919871166781
  0.4227536282207014  0.6251363193462910  0.8465147090818383
  0.4217415941474729  0.8752451522505207  0.3450089783497294
  0.4224919349962470  0.8753662242562766  0.8462282249138741
  0.4217415236594455  0.1247548927078638  0.3450083405188857
  0.4224919203207045  0.1246337632709558  0.8462272799353519
  0.4233692501366325  0.3747042360441475  0.3440911902655007
  0.4227535500077637  0.3748637288713602  0.8465140100634349
  0.3027302932326740  0.6304761481543479  0.4053501561275769
  0.2953160755966239  0.6247377903119188  0.8977840328485018
  0.2959201194106881  0.8756463632477474  0.3986273401673725
  0.2951702799330166  0.8750420866228350  0.8975923707760132
  0.2959200362441614  0.1243539402779870  0.3986263077682916
  0.2951703460482244  0.1249579364576894  0.8975916220868787
  0.3027302465496415  0.3695236193870972  0.4053496470008263
  0.2953160959448100  0.3752621918626166  0.8977836458374086
  0.4568296758768835  0.7503706925068058  0.1042552359337938
  0.4558762303062594  0.7500485499271704  0.6038946537535521
  0.4562150060214714  0.0000001152222112  0.1046727555503364
  0.4557773013071015  0.0000000288521844  0.6040664529476125
  0.4568296636205984  0.2496293304037577  0.1042542150209143
  0.4558762350346072  0.2499515181105114  0.6038938207420527
  0.4574666901512566  0.4999999101438485  0.1040506877990449
  0.4559695540670904  0.4999999633875524  0.6035780467360955
  0.5803077348662563  0.1247469280726500  0.1587191130301985
  0.5798149384984885  0.1248777350669169  0.6581558467616299
  0.5805495606736941  0.3747446386028120  0.1584750869334623
  0.5798904397181783  0.3748710092722122  0.6583938179331400
  0.5805495201840872  0.6252553051392142  0.1584758096183381
  0.5798903899539452  0.6251288990495246  0.6583943863700725
  0.5803077053908687  0.8752531406048636  0.1587198238739466
  0.5798149712137273  0.8751223707746749  0.6581563611624593
  0.6713229841437355  0.0000000364768331  0.3443080968534569
  0.6711002185275169  0.9999999547541480  0.8432933518634137
  0.6713275915797614  0.2497218882612160  0.3440864509057526
  0.6711751662643142  0.2499205657440798  0.8433536622578776
  0.6712758434260747  0.5000000248167755  0.3439825117616637
  0.6712390881028256  0.5000000229629022  0.8433574359044338
  0.6713275403009097  0.7502781249142002  0.3440872162920532
  0.6711751346167376  0.7500793765960313  0.8433541851010139
  0.5454537299813874  1.0000000709472043  0.3984538891278872
  0.5461549182798844 -0.0000000344330350  0.8991282230873604
  0.5461573055510774  0.2494650315510923  0.3987685248397912
  0.5462169897871471  0.2498281205755694  0.8990052141189010
  0.5465986332336715  0.4999999955795590  0.3990295521126820
  0.5462909126208080  0.4999999896820373  0.8989575854881836
  0.5461573299548107  0.7505350635736205  0.3987695276012321
  0.5462170117036255  0.7501719095793714  0.8990059789450657
  0.7049136900239749  0.1248071167947766  0.1027206669936173
  0.7054284420707766  0.1249690525763284  0.6033139592045585
  0.7050410531484828  0.3749129335241569  0.1026431432150093
  0.7053216969655580  0.3749040770626337  0.6032492332622205
  0.7050409976784179  0.6250870205751138  0.1026435683949836
  0.7053217046282810  0.6250958739192459  0.6032497076626065
  0.7049136524328985  0.8751928676611173  0.1027211589858708
  0.7054284742612866  0.8750310353706714  0.6033143403366732
  0.8287424625457314  0.0000000281407738  0.1560929783758978
  0.8292635203600575  1.0000000364030086  0.6568381666420436
  0.8284050589308929  0.2491419102583874  0.1553449322971029
  0.8292811758499801  0.2499232365141414  0.6568848166599294
  0.8284714171066269  0.4999999442348685  0.1555677262735412
  0.8290230923143849  0.4999999338513055  0.6571980747982192
  0.8284050036554598  0.7508580041185693  0.1553466292327479
  0.8292811871207686  0.7500767554782101  0.6568855963950082
  0.9201047272045758  0.1244584211819612  0.3411677065753882
  0.9208187535789634  0.1247891652737446  0.8419934002159535
  0.9179064579214454  0.3728778619386853  0.3411290977107059
  0.9208081886387842  0.3747960477977311  0.8418977687172237
  0.9179063647757811  0.6271221177805503  0.3411309473902249
  0.9208082897719625  0.6252037602299610  0.8418985541046768
  0.9201047189881159  0.8755416114495268  0.3411687650455476
  0.9208187211782418  0.8752107335679039  0.8419943185887404
  0.7952390112324802  0.1248034532366018  0.3976334510618065
  0.7949257566416107  0.1248465268317406  0.8966958377774088
  0.7945937664774361  0.3748163460128292  0.3981324175833748
  0.7950181118161177  0.3749004194727811  0.8969770772452010
  0.7945936612318766  0.6251836416967422  0.3981330784547215
  0.7950181355012610  0.6250996195208604  0.8969777649590994
  0.7952389672560707  0.8751964662296297  0.3976339868842789
  0.7949258286938256  0.8751533280205538  0.8966967074565515
  0.9553213303786459  1.0000000993391149  0.1023144692469037
  0.9545932880402680  0.0000001107157569  0.6013461725706830
  0.9542880184951952  0.2493071886824923  0.1019122445119016
  0.9543620562987373  0.2494652870706971  0.6009509113152195
  0.9535976999801324  0.4999997991435088  0.1012988043384985
  0.9540393168611987  0.4999997871916254  0.6021029873288183
  0.9542879176340969  0.7506927632045710  0.1019136344689164
  0.9543621816635846  0.7505347304414233  0.6009526103801538
  0.2491848179402512  0.7534806672637803  0.1277757265500000
  0.2507348157356152  0.7529752168391487  0.6307802927532740
  0.2488302716414819  1.0000000542897622  0.1276805952261669
  0.2491781149247167  0.9999999228970491  0.6284163955795778
  0.2491848093970193  0.2465194534738111  0.1277753261919852
  0.2507349377856260  0.2470247467749168  0.6307795005533733
  0.2412664649129139  0.5000000579716791  0.1424457451511660
  0.2499355351708387  0.5000002919062331  0.6280643360286294
  0.9989055969857658  0.6304079769478799  0.3682402707354657
  0.0029273536158014  0.6245780044098711  0.8714399884445329
  0.0020715598919608  0.8752702737752607  0.3691843690222741
  0.0025776401364378  0.8750915879836051  0.8704209827157797
  0.0020715488551272  0.1247293123485020  0.3691837554012661
  0.0025776609844459  0.1249082811387383  0.8704205748368276
  0.9989057797229155  0.3695929357374581  0.3682396569794964
  0.0029274153606727  0.3754219950145431  0.8714398597836553
  0.0883140659552856  0.7470030709387734  0.2814657087031096
  0.0867707370013591  0.7501272859480426  0.7789861507678391
  0.0875742775493958 -0.0000000098476326  0.2807013884296065
  0.0872622392381616  0.9999999950438224  0.7797716638069397
  0.0883141018461387  0.2529971616575717  0.2814644371165402
  0.0867708162598192  0.2498723142526125  0.7789850124183562
  0.0813972435605335  0.5000002718105834  0.2841076533471131
  0.0864018550599234  0.4999999030588187  0.7777870427245946
  0.1652557749588089  0.6318440292785488  0.2089494858115683
  0.1631264122366820  0.6242914835186471  0.7142451543105905
  0.1638376622279777  0.8750190272105711  0.2163057883344626
  0.1634562745668917  0.8746145049776312  0.7150319221718152
  0.1638376208774029  0.1249808639887169  0.2163050881983195
  0.1634562831579294  0.1253854764871087  0.7150311280974809
  0.1652558224752851  0.3681561135809870  0.2089487220794879
  0.1631263484454095  0.3757084463445625  0.7142446142013039
  0.1685612982956471  0.6357916272741510  0.4543830986899580
  0.1667769529235824  0.6253507988668623  0.9369117500208463
  0.1696835306870894  0.8754282778094336  0.4443700427361076
  0.1681904861310868  0.8748115260041178  0.9434421594184715
  0.1696833815752190  0.1245716898536002  0.4443694922809414
  0.1681903585762050  0.1251887391400379  0.9434412724217597
  0.1685612834055569  0.3642092540118280  0.4543824917972130
  0.1667768278213957  0.3746490114035311  0.9369108743011298
  0.0822115511570413  0.7498261125749440  0.0529083574488462
  0.0814001834983056  0.7499027039958961  0.5519165327752713
  0.0827363129958825 -0.0000002177389108  0.0524714574227806
  0.0822716006104242  0.9999997823613793  0.5519087227764379
  0.0822115055597360  0.2501736155317070  0.0529069469956151
  0.0814000036076780  0.2500971334043592  0.5519150580117000
  0.0827683280735708  0.5000002319273689  0.0566297193809769
  0.0799873787042024  0.5000002000758969  0.5467019208138219
  0.4992753593213139  0.6253823413339654  0.1302727104638582
  0.4983331323989330  0.6250375921206922  0.6289911019573710
  0.4989579664753190  0.8753658154899355  0.1302033038430941
  0.4983021083135194  0.8749711097541254  0.6290858093272588
  0.4989580089835053  0.1246342638399655  0.1302029937530202
  0.4983021214203577  0.1250288770702347  0.6290856712843172
  0.4992754214651720  0.3746176425469577  0.1302721993215021
  0.4983331205115840  0.3749624641000174  0.6289908375926427
  0.2537521346895207  0.7477791115531023  0.3734903429046584
  0.2519260294822136  0.7495390943924889  0.8713815535980878
  0.2525726423783967  0.9999998430761490  0.3709762402465051
  0.2519790036279524  0.9999999336366149  0.8713133847301761
  0.2537522128621887  0.2522208915226116  0.3734901666722311
  0.2519260781388056  0.2504608992981096  0.8713811284577517
  0.2626714357203084  0.5000000716901064  0.3862055424316181
  0.2514359153436266  0.5000000741782739  0.8729042368207928
  0.3383831928558384  0.6251924180009317  0.2821837461354343
  0.3377223544815690  0.6245915465609392  0.7852115561585239
  0.3373388492062976  0.8745924311966707  0.2826739956106753
  0.3377792302844159  0.8754275600563513  0.7840458911252853
  0.3373388711169911  0.1254076228634128  0.2826732428411979
  0.3377792508856422  0.1245725036084735  0.7840450679841183
  0.3383832016706493  0.3748076439224219  0.2821834777115566
  0.3377222851052705  0.3754085990018816  0.7852110195285924
  0.4139433329625781  0.7493970962922800  0.2180851673487575
  0.4147118095157289  0.7506683598209651  0.7211589508426768
  0.4136285572892200 -0.0000000069089256  0.2189790947973669
  0.4140248210177185  0.9999999465546989  0.7198205819085562
  0.4139433094590938  0.2506029633089933  0.2180841941743062
  0.4147117674833259  0.2493316900372913  0.7211580377216297
  0.4146367106971410  0.5000000135983620  0.2183075326584208
  0.4148414059374645  0.4999999979977049  0.7211704842315709
  0.4179029632435968  0.7492579298604934  0.4464390155193361
  0.4185595828386886  0.7497135502054790  0.9479532622014791
  0.4182723701904808  0.0000000576883676  0.4468002371125919
  0.4189721747784886  1.0000001539617192  0.9477160822155751
  0.4179029458977008  0.2507421737491967  0.4464383283887860
  0.4185595261023418  0.2502864573442729  0.9479523824393776
  0.4182206766725948  0.5000000151833280  0.4459855760449554
  0.4187042202522793  0.4999999018890550  0.9482507224006753
  0.3276139360425258  0.6227017266512392  0.0570791312742956
  0.3351854968283468  0.6267000979889479  0.5618339745704640
  0.3322846662472462  0.8750533583128286  0.0543984548234413
  0.3328470959161844  0.8753669462805621  0.5554313638580270
  0.3322846648152286  0.1249464106676092  0.0543977673239864
  0.3328471051326380  0.1246327086520368  0.5554304469826000
  0.3276138991855638  0.3772985848534964  0.0570786349500612
  0.3351855840574989  0.3733001878304265  0.5618333774396387
  0.7478814987420644  0.9999999741459079  0.1280191204375723
  0.7483749268855779  1.0000000259162740  0.6287490776140323
  0.7478479837538994  0.2498195818203272  0.1281419700601400
  0.7483709950513922  0.2500316508039265  0.6286684610232985
  0.7478900046340696  0.5000000019774077  0.1282089592291416
  0.7482313462753085  0.4999999836823941  0.6286151532930744
  0.7478479253403734  0.7501803696212758  0.1281426044257602
  0.7483710012099668  0.7499683699168773  0.6286687680848567
  0.5023221510896484  0.1252572743044073  0.3728928227541278
  0.5030018880131544  0.1249681053926710  0.8738654690798382
  0.5032751577774189  0.3750432968476980  0.3731596442013272
  0.5031217668400015  0.3749786321048649  0.8739710783459846
  0.5032751951596539  0.6249568235413709  0.3731600828524106
  0.5031217712927065  0.6250213998173980  0.8739714576356520
  0.5023222045100957  0.8747427825575662  0.3728930806526259
  0.5030018716723237  0.8750318417011929  0.8738657330556532
  0.5871987799930064  0.0000001041783915  0.2834682981312439
  0.5870564857829788  0.0000000090443460  0.7826636108992139
  0.5874056879976947  0.2497528258557086  0.2832323234811595
  0.5871078041014293  0.2500358583760430  0.7826734605861507
  0.5875236605566345  0.5000000078149168  0.2830999329345172
  0.5871436431919836  0.5000000093795447  0.7826737739825783
  0.5874056808748458  0.7502472342058744  0.2832330947136157
  0.5871077837290861  0.7499640777504240  0.7826740995636504
  0.6637341656403344  0.1248415481841047  0.2190310192612545
  0.6635346044052314  0.1249794481626928  0.7183603780871775
  0.6638165848115262  0.3748560487482862  0.2188564947052539
  0.6635964596855232  0.3749665976903434  0.7185028361335850
  0.6638165640305147  0.6251439488945618  0.2188569647634283
  0.6635964583543698  0.6250334088905689  0.7185032182229559
  0.6637341369815061  0.8751581253866149  0.2190313312284198
  0.6635345945790394  0.8750205018554617  0.7183606815342701
  0.6684756199758558  0.1249647754362590  0.4464305818700486
  0.6682446984206947  0.1250064713037566  0.9456201084381302
  0.6685373719414871  0.3749136038380428  0.4462128739815227
  0.6683138791700227  0.3750097298515536  0.9456369879029549
  0.6685374090730246  0.6250862748833111  0.4462133270700083
  0.6683138962981324  0.6249901761096658  0.9456373366901305
  0.6684756131267923  0.8750354080716288  0.4464309752018541
  0.6682446924522566  0.8749935364860298  0.9456204611585639
  0.5826146245228779  0.9999998844785977  0.0560665266406048
  0.5817735224306290 -0.0000000177330456  0.5554345654263398
  0.5825206561254223  0.2497305566358104  0.0560341537550107
  0.5820353010557975  0.2499129211811630  0.5557973643565322
  0.5824613964891814  0.5000001264228502  0.0560531554422662
  0.5821692094562239  0.5000000776428173  0.5560788817173277
  0.5825206309989344  0.7502694313062340  0.0560349569815086
  0.5820353679203737  0.7500870688692790  0.5557981270318639
  0.9985951219313643  0.1253731188788036  0.1280286654646732
  0.9979043588536443  0.1248883331790876  0.6264611234782088
  0.9972668703455885  0.3750209601755642  0.1273071816019265
  0.9974814761384343  0.3750356161889659  0.6258235794588818
  0.9972667865244909  0.6249789979843209  0.1273077792562699
  0.9974814605198754  0.6249642619060682  0.6258240329199495
  0.9985950610494747  0.8746268017242317  0.1280291084491419
  0.9979044776328548  0.8751115628755961  0.6264615140229203
  0.7523699940876613 -0.0000000623714207  0.3724289408767033
  0.7521218441182039 -0.0000001379621496  0.8712774976226616
  0.7523043975465582  0.2496212972340854  0.3722992271455917
  0.7522593490661127  0.2499542630949304  0.8716527103835005
  0.7521636139427140  0.4999999935676843  0.3722512702113142
  0.7523426620850022  0.5000000668083846  0.8717757387574598
  0.7523043379908482  0.7503786974435175  0.3722997421909978
  0.7522593306850620  0.7500456987604309  0.8716530443654417
  0.8365741092377634  0.1244613325671149  0.2812707338319390
  0.8372767597986216  0.1249149618619661  0.7822228632552989
  0.8360404775315851  0.3749612072692707  0.2816738577786814
  0.8371635197855423  0.3748791174079910  0.7821094269202592
  0.8360405572932458  0.6250387712495066  0.2816747740019966
  0.8371635517593828  0.6251208292727726  0.7821100653095202
  0.8365741779508349  0.8755386067171664  0.2812715138849857
  0.8372767952651450  0.8750849823515552  0.7822234751855128
  0.9134281835857885 -0.0000000610818434  0.2168715491070792
  0.9136623374093915 -0.0000000737446339  0.7176055590071243
  0.9124685803360698  0.2489152288282463  0.2164388933785643
  0.9137426627203722  0.2501881612628749  0.7177537660136757
  0.9127174147720535  0.4999999409776045  0.2172188537458642
  0.9134949419128938  0.4999999459206878  0.7180111789775431
  0.9124685860353743  0.7510847252823314  0.2164404036053981
  0.9137426808908936  0.7498117830804126  0.7177548196153605
  0.9186380711361266  0.0000001169961424  0.4441615651821059
  0.9194670723337598  1.0000001158932699  0.9451422500835961
  0.9171779160119125  0.2484208311152044  0.4445675656322974
  0.9191307782461029  0.2498837945312463  0.9445679246333304
  0.9197503877464723  0.4999997646975321  0.4437904746113193
  0.9187467120623500  0.4999998487301048  0.9441053985097684
  0.9171779321817678  0.7515792625229484  0.4445690533802994
  0.9191307057398314  0.7501160464897999  0.9445688052747878
  0.8319175842593131  0.1246119319254056  0.0536586734855558
  0.8323623507920181  0.1249760126937370  0.5547113049399328
  0.8319471204420894  0.3747939698014010  0.0541886930491990
  0.8324583452260678  0.3752337771024764  0.5546412760023021
  0.8319471201748119  0.6252062482255976  0.0541894744912131
  0.8324583740364782  0.6247663406812509  0.5546418390458376
  0.8319175478949606  0.8753877427507619  0.0536594513007903
  0.8323623747140083  0.8750238457939312  0.5547118415778698
