Co   Ga   O 
   1.00000000000000     
  24.9361379999999997   0.0000000000000000   0.0000000000000000
   0.0000000000000000  12.3494290000000007   0.0000000000000000
  -2.7833760000000001   0.0000000000000000  11.4316289999999992
Co   Ga   O 
1  128  192  
Direct
  0.2540871618550262  0.6249938345398884  0.2852532359546026  
  0.0759901269188321  0.6250009911614075  0.1582913449303890  
  0.0784043983935978  0.6249995061787419  0.6554218892599426  
  0.0785035445613691  0.8757235146921850  0.1558492472096780  
  0.0778340832952898  0.8755591073942468  0.6562136940856832  
  0.0782639724625373  0.1250001059286531  0.1564927688546532  
  0.0784447147400889  0.1250005025745461  0.6568979751302454  
  0.0785032803409866  0.3742752062043265  0.1558483262726299  
  0.0778337281730152  0.3744421126231048  0.6562136585926944  
  0.1685893521914005  0.7535646449231000  0.3481717842938979  
  0.1695491885655141  0.7519052827613253  0.8367122564399224  
  0.1697612490618399  0.0010384606649976  0.3419888655247371  
  0.1699182216887403  0.0004379132901359  0.8431551538193475  
  0.1697613566247285  0.2489543246541802  0.3419899402315220  
  0.1699181576574353  0.2495676268356228  0.8431596853462074  
  0.1685867963340772  0.4964285163072844  0.3481777312251186  
  0.1695493603642326  0.4980984422252842  0.8367145502795854  
  0.0439418032541639  0.7499860042360336  0.3976059571002342  
  0.0451683242569595  0.7496113774210443  0.8979897932837255  
  0.0444195420424319  0.0002446831551425  0.3975128732362267  
  0.0441928389398917  0.0000772155460242  0.8969407449307324  
  0.0444196441782055  0.2497553692391615  0.3975136436979679  
  0.0441930210576312  0.2499244702281923  0.8969422506427489  
  0.0439421520375750  0.5000134792344787  0.3976064599180175  
  0.0451680440250934  0.5003891422462603  0.8979891856853919  
  0.1992292196453810  0.6250081382650278  0.0869524256330055  
  0.2049931773597876  0.6249980575044631  0.6000367979873122  
  0.2035079860698955  0.8755721605627010  0.1033124340806118  
  0.2043830421056824  0.8764403221673571  0.6029302413099976  
  0.2048226901183502  0.1250045216010321  0.1032426732738999  
  0.2046045265576633  0.1249965465183697  0.6026448827546129  
  0.2035086232271932  0.3744358514112843  0.1033170589839575  
  0.2043828458339590  0.3735552156066855  0.6029319938285375  
  0.3283724390153618  0.7521932135136411  0.1532753021778617  
  0.3275815530363795  0.7533098392064401  0.6624010994842026  
  0.3283531152444766  0.0010105621498339  0.1553780941811912  
  0.3289951058494545  0.0004710912805282  0.6550850533222867  
  0.3283527033535777  0.2489930874454116  0.1553799152964613  
  0.3289956144512542  0.2495244757158001  0.6550859323018648  
  0.3283745073390147  0.4978139499788316  0.1532771100783033  
  0.3275810870174085  0.4966849478956473  0.6624008925950516  
  0.4353666017444608  0.6250021245317000  0.3216260812499090  
  0.4205724199973223  0.6249994441886388  0.8420260638435734  
  0.4198951258488225  0.8775853885994613  0.3391528633740337  
  0.4210181947504448  0.8758490497983905  0.8422980136525693  
  0.4198839688939669  0.1250004839792817  0.3429345349355771  
  0.4205259814455692  0.1249994260660123  0.8423314834886738  
  0.4198942377750368  0.3724152414470763  0.3391539239890624  
  0.4210182163550408  0.3741501645879708  0.8422982009047033  
  0.3574650219148123  0.6249990038879768  0.4401837539814573  
  0.2943422835047189  0.6250022784123155  0.8982222317476171  
  0.2928457611644893  0.8733309591110101  0.3969783585802051  
  0.2938922627054917  0.8752850917676100  0.8967101315405298  
  0.2940898345703040  0.1249960110666904  0.3968611700890751  
  0.2945033569696597  0.1250016316302651  0.8955508478462698  
  0.2928461734563040  0.3766608196466245  0.3969822055103424  
  0.2938930686827370  0.3747197332019693  0.8967108128781912  
  0.4571822363101589  0.7514998150193792  0.0983579042282721  
  0.4573571248234287  0.7497594517954187  0.6082645503976197  
  0.4549642742042636  0.0005303730267234  0.1015289492372393  
  0.4548137155398035  0.0000295518982509  0.6022641977573919  
  0.4549639240321335  0.2494696595068008  0.1015294715691508  
  0.4548139811183613  0.2499692031441789  0.6022647293738077  
  0.4571824453642472  0.4985005148031590  0.0983574047018804  
  0.4573573472885833  0.5002389596843708  0.6082655208805876  
  0.5792155125937357  0.1250001177101124  0.1579916363859743  
  0.5793672394324989  0.1250002304089442  0.6571041512265274  
  0.5801732455554615  0.3738921002521515  0.1576030342576999  
  0.5804494545474801  0.3736992589332523  0.6596268711370289  
  0.5804250741685754  0.6249998560553885  0.1580884332865060  
  0.5814420109091940  0.6249995652020609  0.6600753448777510  
  0.5801735134167741  0.8761075745416580  0.1576046058977198  
  0.5804494639809684  0.8762998797465608  0.6596287779876436  
  0.6708860788155436  0.0002209568659688  0.3440396785797994  
  0.6713732054924482  0.0002952718385075  0.8437336717131384  
  0.6708859630768853  0.2497788061405016  0.3440386971138191  
  0.6713730275971511  0.2497044450102460  0.8437326464003315  
  0.6721386969102504  0.4996932802970020  0.3429473733377185  
  0.6716965909699285  0.4996347797329577  0.8444265138163525  
  0.6721388802080268  0.7503063384744793  0.3429485596540987  
  0.6716967477725264  0.7503647729071260  0.8444278932893268  
  0.5437388354419435  0.9998397956511500  0.3972425421254620  
  0.5448926532294274  0.0002811782604149  0.8973870226243706  
  0.5437387481112385  0.2501598824216220  0.3972418947767296  
  0.5448926321476272  0.2497179740023395  0.8973862163602512  
  0.5504345135390902  0.4955367095480873  0.4015190920418769  
  0.5453052684866598  0.5000251764348175  0.8975739653988661  
  0.5504343063677986  0.7544638236721958  0.4015194397467826  
  0.5453054589164331  0.7499739428749697  0.8975747347814835  
  0.7048879043750778  0.1249999513932879  0.1030208231791586  
  0.7052037708633528  0.1249999267883230  0.6028886764313957  
  0.7055390700657193  0.3744741192142693  0.1027381460040775  
  0.7052801969912759  0.3748923561507052  0.6028087234129256  
  0.7056761147489876  0.6249998675279946  0.1024354558422043  
  0.7053528033759416  0.6249996322648249  0.6022405100638689  
  0.7055392165241581  0.8755256421939898  0.1027397024394844  
  0.7052803072074757  0.8751070996129525  0.6028099617030391  
  0.8292930683706157  0.0002210810732580  0.1572874411096432  
  0.8292094576402190  0.0000288163736511  0.6573210454783003  
  0.8292929458593912  0.2497784297161692  0.1572861192476148  
  0.8292098088206060  0.2499711685428520  0.6573201307810979  
  0.8291643637158866  0.4997878829326741  0.1572552444120716  
  0.8292181876775125  0.4999280377643217  0.6574251843888376  
  0.8291643262961930  0.7502124377344983  0.1572566033599146  
  0.8292182122513532  0.7500716233025386  0.6574256575070798  
  0.9204639557857024  0.1250000766723460  0.3427852050144739  
  0.9204106325037228  0.1250007762178948  0.8429790917017260  
  0.9203976139575780  0.3747778527997846  0.3428017449804987  
  0.9206342745035124  0.3750498622100648  0.8425163010222076  
  0.9202593425238260  0.6249999563121286  0.3427675354208961  
  0.9206601054818120  0.6250001448957280  0.8424270465429892  
  0.9203974032527804  0.8752223760414289  0.3428021279343359  
  0.9206341957316388  0.8749510051364455  0.8425161376793886  
  0.7949306860787154  0.1249997108211801  0.3976353402042055  
  0.7952161304606754  0.1249998407737550  0.8979522606208974  
  0.7951859326423691  0.3744899398437798  0.3977801641787572  
  0.7952262572072937  0.3747748112046373  0.8976513410443587  
  0.7954684544737880  0.6250000380170622  0.3979780150553178  
  0.7952903973784882  0.6249999904719956  0.8976734599190153  
  0.7951861819179628  0.8755098671899140  0.3977814581886403  
  0.7952265363549020  0.8752248979009479  0.8976523807623357  
  0.9547297737133016  0.9998353487854620  0.1024014817591022  
  0.9543807812053080  0.0002818661819169  0.6021564355475914  
  0.9547298331504672  0.2501654899268145  0.1024015406762476  
  0.9543805661727028  0.2497180123498888  0.6021556487097849  
  0.9537569471841538  0.4993891309671690  0.1017000769858156  
  0.9545763337329150  0.5000208587208307  0.6023029772797701  
  0.9537567097818884  0.7506112553291453  0.1017007455994734  
  0.9545759656046154  0.7499798528157232  0.6023031582601651  
  0.2466611423259022  0.7477926425862683  0.1285262382772934  
  0.2471874140953017  0.7510386359630800  0.6297147779589191  
  0.2479604176971893  0.9993240165427544  0.1289759503460796  
  0.2482267184896417  0.0003158494709630  0.6283143527873942  
  0.2479611207246364  0.2506852587365473  0.1289792759373080  
  0.2482267022888912  0.2496789593761800  0.6283158840415553  
  0.2466604791520021  0.5022209581078768  0.1285431641045415  
  0.2471874693196195  0.4989573220185764  0.6297176264473791  
  0.0014863468214623  0.6249997365263352  0.3706784481674222  
  0.0022105577501221  0.6250005037097996  0.8727234409306972  
  0.0017185085137121  0.8751467176231700  0.3710204078062970  
  0.0021604118650977  0.8741841492253122  0.8728404743522356  
  0.0015884959663464  0.1250000982733092  0.3718166806703188  
  0.0015403666530135  0.1250011927430433  0.8711751700926882  
  0.0017192908255118  0.3748529023190435  0.3710206788078654  
  0.0021606210452642  0.3758161911301801  0.8728415262875573  
  0.0864787740403826  0.7481365813356119  0.2817932791019868  
  0.0861333380621807  0.7509246197581064  0.7806897168932229  
  0.0860719343066741  0.0005110600757853  0.2817891325580266  
  0.0865798364005638  0.0001835924659572  0.7824593144908504  
  0.0860717276541364  0.2494881421783491  0.2817892849751901  
  0.0865798956797428  0.2498187218881493  0.7824615342588972  
  0.0864790005444438  0.5018621103845560  0.2817991705747959  
  0.0861341492666614  0.4990772604095446  0.7806893113080268  
  0.1695930343247634  0.6250014365320044  0.2244245798958410  
  0.1629503182324235  0.6249993542927623  0.7152561869613178  
  0.1617258551764964  0.8772002296832433  0.2174494455933216  
  0.1629004843969174  0.8757752681741394  0.7179339272504259  
  0.1629281643632776  0.1250000201641550  0.2176682046272364  
  0.1631526208689126  0.1250009107424833  0.7182264467139673  
  0.1617238243106678  0.3727984395623551  0.2174483965467833  
  0.1629011165057926  0.3742261532428897  0.7179363524919693  
  0.1655081010881998  0.6249953435660315  0.4460878790144162  
  0.1643589608769925  0.6250031513776618  0.9355337211471316  
  0.1661864928976172  0.8783195792957972  0.4473447682040676  
  0.1685546592753767  0.8742284489125978  0.9453659426021712  
  0.1682012905628854  0.1249961545781363  0.4455953019436243  
  0.1686059820394879  0.1250005568963675  0.9462522845448628  
  0.1661829482570801  0.3716808455146903  0.4473463421757810  
  0.1685565731331455  0.3757789871665512  0.9453714560027896  
  0.0830829639388912  0.7477593367646261  0.0560345425713394  
  0.0812663645983833  0.7505664183808624  0.5541288826255801  
  0.0814618532757987  0.0002579572800304  0.0538226820019567  
  0.0813218215564634  0.0002413037780970  0.5547551219675370  
  0.0814618526760861  0.2497444159457703  0.0538234397038448  
  0.0813219504101778  0.2497583919184672  0.5547562970860430  
  0.0830835209003667  0.5022392841820033  0.0560364018075598  
  0.0812664594880487  0.4994342384506872  0.5541287139067492  
  0.4979872849608046  0.6250001621421064  0.1345797561458050  
  0.4995301440175609  0.6249994748774752  0.6283280726204014  
  0.4982510411702161  0.8763902292098965  0.1302420641344827  
  0.4977854744565514  0.8748602887580845  0.6249429877436031  
  0.4975512420336552  0.1249997836491106  0.1289958441677262  
  0.4973197456626287  0.1249991558263078  0.6268675823436149  
  0.4982508698711418  0.3736102792397512  0.1302413330657241  
  0.4977854330522214  0.3751381354249730  0.6249430408895373  
  0.2482633445816795  0.7538046227397822  0.3699183781141719  
  0.2515976214768828  0.7496714249999081  0.8741925211421221  
  0.2516625940493541  0.0002489952444198  0.3714785885751881  
  0.2517246917261711  0.0001495349920964  0.8717329659195242  
  0.2516604987435533  0.2497426422766248  0.3714789813849432  
  0.2517248110967089  0.2498546305753567  0.8717337735312097  
  0.2482635202356008  0.4961854537028662  0.3699282221027031  
  0.2515977429724308  0.5003330382837217  0.8741994663528526  
  0.3315153469581925  0.6250029585531459  0.2783744604213504  
  0.3366491263960911  0.6249993290839456  0.7851650051593625  
  0.3371936384570817  0.8703164517508298  0.2827625181748744  
  0.3366396801037810  0.8747899174529945  0.7828492329926569  
  0.3366587963990958  0.1250010794611577  0.2816848405213510  
  0.3368727646850087  0.1249996195425777  0.7811397581741257  
  0.3371941373762728  0.3796842522590826  0.2827659052812283  
  0.3366399566171437  0.3752102659942174  0.7828512381185599  
  0.4149234231330610  0.7482025413224977  0.2176971116045259  
  0.4132153030712759  0.7497784708720689  0.7180153920973943  
  0.4125105211292066  0.9988619221011700  0.2167489143008834  
  0.4128823797928502  0.9991581337531216  0.7170448917701239  
  0.4125095562594149  0.2511407258385449  0.2167498077063613  
  0.4128825750909382  0.2508402635091010  0.7170449930525826  
  0.4149225212314339  0.5017990716528182  0.2176988231562601  
  0.4132148266261884  0.5002196153686559  0.7180146847041391  
  0.4149833843623323  0.7361041265816772  0.4467119315059252  
  0.4181960850902934  0.7502516883023909  0.9447318150305114  
  0.4176519048453481  0.9981937750303992  0.4447465925876234  
  0.4179955508232573  0.9999025214189584  0.9449055383727492  
  0.4176522858481179  0.2518054124593017  0.4447481392855061  
  0.4179953022256799  0.2500975094827803  0.9449057195757888  
  0.4149838593076484  0.5138936221825230  0.4467125084123025  
  0.4181958942069582  0.4997468872218586  0.9447309917019868  
  0.3318824691383846  0.6250027909339275  0.0562811195307514  
  0.3299768808415140  0.6249968345717233  0.5655720650155958  
  0.3318948416299523  0.8751278890539836  0.0540241174266126  
  0.3316948337470338  0.8733272552092372  0.5538903511988934  
  0.3315581758616760  0.1250034420792317  0.0533036788729986  
  0.3324255722415167  0.1249968690576128  0.5531850491960590  
  0.3318941710631916  0.3748765636852348  0.0540262807455020  
  0.3316953928023472  0.3766708152400166  0.5538943830070340  
  0.7479264544306913  0.0005500632461079  0.1285261293113886  
  0.7478471131316233  0.0000790194946252  0.6283153534937284  
  0.7479265110068863  0.2494496918039614  0.1285253738192026  
  0.7478472038319515  0.2499206346289512  0.6283144664443818  
  0.7479414242352392  0.4997431662465869  0.1285792901570133  
  0.7478179349765387  0.4999449602654782  0.6280921218241067  
  0.7479414679031674  0.7502567033593139  0.1285805366685406  
  0.7478177980377695  0.7500544647771545  0.6280928965794036  
  0.5005531318448725  0.1249997427417610  0.3710337824249013  
  0.5015513633434401  0.1249991283662503  0.8708871293855678  
  0.5009447332974412  0.3783576943581197  0.3745237665161344  
  0.5019491369123448  0.3751652266769194  0.8705661257223904  
  0.5100569306803563  0.6250001150475790  0.3798821908053268  
  0.5018282989646803  0.6250001636727187  0.8720743229793438  
  0.5009447809249151  0.8716419692107048  0.3745242652949614  
  0.5019489703360859  0.8748337099033813  0.8705657942772560  
  0.5859008334785493  0.9995670410467520  0.2828976709671270  
  0.5863557696684548  0.0000167322142074  0.7817660027389527  
  0.5859007523503607  0.2504332998541196  0.2828967794942313  
  0.5863557311278511  0.2499820414869373  0.7817647366830283  
  0.5877930214713116  0.4986431475676038  0.2815952140501756  
  0.5869051202001713  0.4998006100331578  0.7827692948653946  
  0.5877929865085001  0.7513563739946157  0.2815959512251315  
  0.5869049580108957  0.7501991994129408  0.7827699997369141  
  0.6625086909865255  0.1249998633203614  0.2181363884568781  
  0.6627815701671131  0.1249997673102477  0.7175914024732986  
  0.6632913522407310  0.3742025189373686  0.2176932540565440  
  0.6635583028725018  0.3740656283375427  0.7188604699866582  
  0.6634002012686875  0.6249997011393884  0.2174325380433655  
  0.6638905808028601  0.6249999306771680  0.7190022956584960  
  0.6632915297151540  0.8757975905819877  0.2176949420044745  
  0.6635583206446128  0.8759335987591771  0.7188616992309248  
  0.6676711188283478  0.1250001449889259  0.4459111797567316  
  0.6677064119962854  0.1249998557793755  0.9456530983171256  
  0.6675994963809774  0.3753711495639191  0.4456628620419712  
  0.6678380358750505  0.3747737688176786  0.9459711320803120  
  0.6676386665206649  0.6249998033462240  0.4450136717505490  
  0.6678773718800138  0.6249996413146143  0.9458747525479906  
  0.6675996281238009  0.8746284455234492  0.4456637850814615  
  0.6678381954534172  0.8752258686886148  0.9459722161219069  
  0.5810147404674506  0.0004520324209580  0.0546077355232020  
  0.5805994847704586  0.9998805978319480  0.5539765864346183  
  0.5810149565287882  0.2495474256611122  0.0546066260053563  
  0.5805994020978079  0.2501184229597980  0.5539763254220514  
  0.5802583328262425  0.5000416995763608  0.0552318287756131  
  0.5836367482280259  0.4986672427735770  0.5583237678500573  
  0.5802584168198379  0.7499583970874845  0.0552327759470209  
  0.5836367485546210  0.7513328077173107  0.5583235692308144  
  0.9975011075095896  0.1249998516358844  0.1279236692723813  
  0.9974985698969412  0.1249999813170769  0.6283276268735459  
  0.9977951710789100  0.3756350068400918  0.1277236797258568  
  0.9972645761127854  0.3747284138539312  0.6282196151250586  
  0.9964000244002612  0.6250002750542750  0.1274470949353105  
  0.9976003392473646  0.6250005880333532  0.6280118184143006  
  0.9977955282365848  0.8743658515481789  0.1277226403474129  
  0.9972645638929774  0.8752718795842547  0.6282192795471395  
  0.7517609736846925  0.0000490568672706  0.3720440068368621  
  0.7520888988085799  0.0001631796755349  0.8721477039325987  
  0.7517610400155618  0.2499505506102075  0.3720437610477386  
  0.7520888147710847  0.2498364430812136  0.8721476872329962  
  0.7523514757875632  0.4999794741740695  0.3719725601511455  
  0.7522211627679837  0.4999098391415031  0.8722416967768036  
  0.7523515038702386  0.7500207511610988  0.3719730730961580  
  0.7522212165566751  0.7500900931270295  0.8722421854403708  
  0.8365828452469769  0.1250002005974577  0.2821816094392551  
  0.8366356508727018  0.1249999559480867  0.7822320910502943  
  0.8365215890226908  0.3747617570664716  0.2820813293806327  
  0.8365829431765133  0.3749852031216281  0.7819429612768041  
  0.8365959198001668  0.6250001599727519  0.2820718662237703  
  0.8365726941025671  0.6250002760815763  0.7818792356775911  
  0.8365217131814581  0.8752383342370080  0.2820820448752570  
  0.8365828491235273  0.8750149171407623  0.7819437472468561  
  0.9131091137363472  0.9998379027563180  0.2178436039116048  
  0.9130332260664076  0.9998419190620662  0.7180373825700834  
  0.9131092216506704  0.2501624374135019  0.2178435294142500  
  0.9130332512937062  0.2501583237664639  0.7180375351854853  
  0.9128212221974620  0.4997655533250118  0.2178666511438282  
  0.9131209595616916  0.5001260091974363  0.7179662617931462  
  0.9128210570935972  0.7502343407803027  0.2178674177657992  
  0.9131209024279060  0.7498744343202437  0.7179663976029491  
  0.9178293190914220  0.0000212907064551  0.4451568519027563  
  0.9181626260498664  0.9996809423401910  0.9452851014275940  
  0.9178290090025476  0.2499792399924926  0.4451565245477266  
  0.9181624453690476  0.2503204610895438  0.9452846319013845  
  0.9180493292444756  0.4999543316170311  0.4451611903111828  
  0.9176895845074140  0.5000345942822745  0.9446978685130952  
  0.9180492388206490  0.7500455452044582  0.4451610386216773  
  0.9176894751642884  0.7499657782631111  0.9446987810796216  
  0.8319236057077121  0.1250001180056247  0.0548327469679649  
  0.8315863133731426  0.1249997417307536  0.5547397767218533  
  0.8316062192977846  0.3748473506964533  0.0547925573709815  
  0.8316063809704165  0.3749861476730428  0.5547998896079935  
  0.8315775948190905  0.6249999141224533  0.0549090949005559  
  0.8316694312147356  0.6249999460428667  0.5549530807927469  
  0.8316061475934771  0.8751523550690227  0.0547935712572279  
  0.8316065287682756  0.8750136108828742  0.5548006107435154  
