Ga129 O192
   1.00000000000000
    24.9361379999999997    0.0000000000000000    0.0000000000000000
     0.0000000000000000   12.3494290000000007    0.0000000000000000
    -2.7833760000000001    0.0000000000000000   11.4316289999999992
   Co   Ga   O
     1   128   192
Direct
  0.3383659094311255  0.4953318942249150  0.4087015522740107
  0.1668539953404525  0.5004154103508139  0.3300123547508089
  0.1693318908999362  0.5002145898180376  0.8508320421694944
  0.1675115568011094  0.7586967378394023  0.3357639904317633
  0.1698957332709195  0.7511640122412767  0.8459646978274175
  0.1706420799214963  0.0002062369813370  0.3414565276505689
  0.1707881143149221  0.9999777520936940  0.8411546392431655
  0.1667111575126938  0.2410327557975405  0.3330982520923771
  0.1697483584118644  0.2488415515682725  0.8458000004469366
  0.0767526703312343  0.3735613324707002  0.1547533473473566
  0.0770598635901718  0.3752449770641411  0.6595061549722713
  0.0769598160302965  0.6263841888554399  0.1552998839187529
  0.0775105746847914  0.6251223573741371  0.6594783099473248
  0.0772130743258584  0.8770765111439365  0.1527350469873868
  0.0791641906342319  0.8751970588808914  0.6556939641240567
  0.0769267869932444  0.1225159220060540  0.1520300206440699
  0.0792323567666688  0.1253735091102726  0.6553385156223825
  0.2064751227293763  0.3744238580592422  0.1052636984429563
  0.2023949913561603  0.3772878765881610  0.6160586986626200
  0.2068578162931397  0.6242747078432711  0.1053514837619037
  0.2037432847742552  0.6271837553166280  0.6154415593800130
  0.2057894816830504  0.8750992746720192  0.1023613322996506
  0.2047091009203723  0.8775874084892582  0.6014997135314555
  0.2057886201294109  0.1241544722873015  0.1015506599483297
  0.2051052602872140  0.1271458592460351  0.6002816975643070
  0.0429208486918278  0.5001230112288346  0.4008162924506908
  0.0431745067612407  0.5001016383741426  0.8989309218768060
  0.0435720365102314  0.7500362945452343  0.3988705945430084
  0.0437474561004320  0.7504271163828962  0.8968674543806051
  0.0446803741953261  0.0000463680195162  0.3961784776641120
  0.0439258080898958  1.0000239583716668  0.8931566259656666
  0.0434113941094063  0.2501288797672698  0.3986641657878283
  0.0435873419947972  0.2495915338707191  0.8965213286467218
  0.4223268067492713  0.3691829838924285  0.3342144057450279
  0.4231826099251915  0.3750888361652984  0.8445828853697606
  0.4222178297096006  0.6267395961236042  0.3371456464056815
  0.4227528359558069  0.6258004428470204  0.8458239984172694
  0.4219414782135348  0.8747492234470633  0.3434867888852802
  0.4220638841928973  0.8757422593982295  0.8439008255245500
  0.4222814928740289  0.1232125932569853  0.3419581672742322
  0.4222831162245577  0.1239731292893196  0.8434982421576829
  0.3317170055629410  0.4973026456460537  0.1598807177081993
  0.3298424229033254  0.5025422869666322  0.6719153889242226
  0.3297006931795755  0.7511224308927398  0.1574804511614917
  0.3308835139911939  0.7537378361985718  0.6641425937405983
  0.3301568877649231  0.0010644003962190  0.1556304911924468
  0.3295717609152899  0.0015375761893656  0.6559385628708791
  0.3301367988407335  0.2524427887899530  0.1600091986932701
  0.3322377355353576  0.2491294580346714  0.6636113516609075
  0.4580433371679124  0.4991975427102176  0.1018441537627624
  0.4567962503844042  0.4993814061966780  0.6068565566508084
  0.4561240725741152  0.7498722966085551  0.1021349457331162
  0.4557614552144579  0.7498670048821288  0.6011057263570813
  0.4560975587395494  0.9993967191557478  0.1025400208401028
  0.4558788785991595  0.9997098975215175  0.6020574945213653
  0.4566865213033010  0.2484894314640768  0.1002824227999050
  0.4563473629547887  0.2494561289764952  0.5993576655686056
  0.2623198208121374  0.3638560177941643  0.4452661597640423
  0.2940001055422352  0.3747893860092691  0.8984129504798117
  0.2657066305144329  0.6330994947828974  0.4385199737634723
  0.2942524560936675  0.6250340805623805  0.9023351720122823
  0.2966716035939189  0.8764931973333335  0.3965155942359401
  0.2944931969615762  0.8750796285946839  0.8972554785678905
  0.2965575440039459  0.1248682312878607  0.3952269811826597
  0.2947070284375766  0.1257686461876710  0.8975375555476693
  0.5803525449696505  0.1243296851884122  0.1567593581345096
  0.5800706411659992  0.1244146765667950  0.6570007961061213
  0.5805815386493202  0.3741196742481563  0.1566648772785240
  0.5803551255701664  0.3745742678818670  0.6566995548295632
  0.5804471198386741  0.6252760381257924  0.1569941103805194
  0.5801733686776119  0.6246669468099243  0.6569422077721808
  0.5801678750717491  0.8747907673597057  0.1571357849304687
  0.5799353144305440  0.8746457312858200  0.6573306995335657
  0.6712716806538515  0.9996325525746129  0.3428294236291146
  0.6712882980154544  0.9997397282457406  0.8426926732385971
  0.6711513443565222  0.2495232999801885  0.3428631722335707
  0.6712886989414077  0.2496769258154990  0.8425913346305486
  0.6711103634106035  0.4997877217711124  0.3427647966060854
  0.6713462314192266  0.4998946348910206  0.8425644202937146
  0.6711521125196247  0.7499102529244814  0.3430062017443802
  0.6712635997224450  0.7499378788668193  0.8427116499162643
  0.5461894070607305  0.9988846318750728  0.3971891675924401
  0.5459680362147461  0.9999327742414944  0.8973120116820184
  0.5458765761591425  0.2488195879294429  0.3969486703056322
  0.5461925265243740  0.2496659660401075  0.8969983820486007
  0.5460446601492701  0.4991616780509451  0.3967776452632981
  0.5465242130207824  0.5002595657294474  0.8975785000910299
  0.5457229523188540  0.7493737917369111  0.3974306536421928
  0.5459993874615955  0.7504027427239591  0.8973683135355125
  0.7051650738666991  0.1247624188431680  0.1018703090885187
  0.7052783026163210  0.1246724583076040  0.6020368412952868
  0.7051977296668538  0.3747780019402751  0.1017879361719254
  0.7052246165215247  0.3747439326443169  0.6018370463374508
  0.7051694588738417  0.6249115835363009  0.1019388444033588
  0.7051941194450458  0.6249195124746832  0.6019911582943014
  0.7051216936160987  0.8748303764081232  0.1020157198400276
  0.7052528393554985  0.8749003891594401  0.6022040686779652
  0.8288433274582915  0.9998626487379734  0.1567019982330249
  0.8290965592422334  0.9998522271055477  0.6561144227527990
  0.8288062467900137  0.2496987028603311  0.1567858662909606
  0.8288876090873761  0.2497950196280065  0.6565248145678776
  0.8287342672444510  0.4999216875480589  0.1568800547284998
  0.8287202784197727  0.4999091571250167  0.6569517278624772
  0.8288054971829633  0.7500906049625528  0.1568036586385392
  0.8288949959480982  0.7499688201061406  0.6565333668107720
  0.9200700552274519  0.1247552729201594  0.3424116334050329
  0.9199407442115517  0.1247626483409892  0.8418201861752597
  0.9195118644337763  0.3748805538240915  0.3426575518006800
  0.9197583567177596  0.3748291801290509  0.8425853823013898
  0.9195342804144182  0.6252198765456817  0.3426795102564438
  0.9197762263461383  0.6251836093536786  0.8426071872069767
  0.9200934462154501  0.8751813165092452  0.3424554306496790
  0.9199915039793659  0.8750833898000855  0.8417775987609507
  0.7948940436977353  0.1248260227356927  0.3973780281287005
  0.7950797791926236  0.1247755296231634  0.8974204423429506
  0.7947490141886175  0.3748275966389437  0.3977789359583723
  0.7949609093858729  0.3747980135240477  0.8978048889589756
  0.7947639574474524  0.6248413313267103  0.3978046602838601
  0.7949706268009302  0.6249728642226603  0.8978260349997484
  0.7949082220776116  0.8747971123645752  0.3974068640054982
  0.7951032678004207  0.8749161175015471  0.8974325606151170
  0.9537336297432216  0.9998021684775107  0.1015979151704768
  0.9551778640089466  1.0000963919725074  0.6020825770341045
  0.9536868214385057  0.2497531609320888  0.1021143267133283
  0.9542633307300157  0.2495137373936200  0.6023787321498453
  0.9536771147822641  0.5000449838123550  0.1027236720723289
  0.9535072746467409  0.5002441351943289  0.6025447998162551
  0.9537689049104049  0.7501323025539665  0.1022005940269041
  0.9543956762472532  0.7505389019209396  0.6024824165726068
  0.0012130186223225  0.3751844377740893  0.3727001653829356
  0.0013705913945235  0.3747636188836965  0.8721132632362772
  0.0012566327137313  0.6251081125963173  0.3728869102631086
  0.0013926789675134  0.6254189507333353  0.8722090003492664
  0.0019264046529591  0.8751475395436730  0.3715047007735948
  0.0014403377053330  0.8751679174655224  0.8700789451709001
  0.0018743629147684  0.1248821054805708  0.3714430810215744
  0.0013497311881610  0.1247655230171884  0.8701502563752265
  0.2483936291120776  0.4991120668148951  0.1262979479317956
  0.2467731154451552  0.5009280012767352  0.6296488750214948
  0.2486773321930825  0.7500182566083008  0.1284715937335526
  0.2476742959812720  0.7507062876288128  0.6247036293984607
  0.2485183984768632  0.9996362721070385  0.1294246398890766
  0.2480584580429982  0.0023011953784855  0.6267617203153308
  0.2481848769660892  0.2490810462866971  0.1258944581991444
  0.2485975023609533  0.2562134875845613  0.6169872599755589
  0.1621735002461482  0.3747471346537503  0.2175705028829667
  0.1610900596876491  0.3758271637697885  0.7237818032321522
  0.1626293863621423  0.6248455353479658  0.2175259218105508
  0.1615595650919250  0.6248794105998432  0.7230513638779861
  0.1616561258283879  0.8767899971413041  0.2142919063209878
  0.1633644026853719  0.8749762372883884  0.7172802417384281
  0.1613969096513266  0.1226235207246315  0.2132902424028081
  0.1636394601685343  0.1273841335658326  0.7159122494349656
  0.0868032305765367  0.5004341884182976  0.2877638335181750
  0.0859279368993706  0.5003214246882843  0.7848359707116788
  0.0866686977430121  0.7472075331832155  0.2843720832820050
  0.0865058383725797  0.7506359788660186  0.7829459829917175
  0.0861219408744079  0.0000181590952457  0.2795876563355915
  0.0872369831778691  0.0005481072721450  0.7805348856426805
  0.0860971563871645  0.2526028339480963  0.2834053842901101
  0.0863083428524490  0.2496149853948664  0.7826277945286775
  0.0804612031569569  0.5000097961938599  0.0567061184810647
  0.0837878474382361  0.5000275421776745  0.5560627913381330
  0.0808025991046949  0.7504350988603573  0.0545973863137930
  0.0831831643177444  0.7478400859592521  0.5547095533686913
  0.0806003693956583  0.9997335223994442  0.0504676131717387
  0.0820452772114795  0.0001768951141915  0.5532777594874565
  0.0806739331106742  0.2493587603705406  0.0541754003683321
  0.0829574869747033  0.2528238281420222  0.5544725568480566
  0.1813327083118048  0.3763687897012178  0.4478354014773107
  0.1678158307657548  0.3736597756049163  0.9488362547363597
  0.1833794857100293  0.6250247436866383  0.4474512525202423
  0.1680104522776986  0.6262882241198184  0.9492206606828236
  0.1666597737611376  0.8772234830478725  0.4449800452726088
  0.1684711302890387  0.8760436309145664  0.9458783634578481
  0.1663890036988519  0.1242572883863352  0.4443243514571443
  0.1683574495150395  0.1237178241372019  0.9450273521886062
  0.2542674380861242  0.4976190036513847  0.3646530582025418
  0.2508544163139313  0.5001975563536981  0.8699860542587804
  0.2485534872593013  0.7593818912210299  0.3615189616603930
  0.2512974385885801  0.7497871688231118  0.8696362834883611
  0.2524484261712849  0.0005291595098112  0.3719357124849391
  0.2519419499551355  0.0004264894940048  0.8699673660015049
  0.2478008947857430  0.2412374443797953  0.3602069089038762
  0.2509354415950947  0.2502846737365923  0.8644431635553516
  0.4995183161355852  0.3729900762474558  0.1261137402261651
  0.4986081994306863  0.3748289141065052  0.6274888725272695
  0.4992331628342177  0.6258910338382413  0.1269871973921496
  0.4982275131605023  0.6244562962231835  0.6273979033580732
  0.4985803975498714  0.8745760594366501  0.1278000215383200
  0.4982440991752224  0.8747028384212669  0.6287521756527271
  0.4990352571801766  0.1236145991562036  0.1263799173170423
  0.4984719012424125  0.1244262999843270  0.6285316551111385
  0.4178441264653878  0.4988781861585331  0.2172904255420496
  0.4128982646603088  0.5007363754484790  0.7181879315069020
  0.4129041662556311  0.7496487572408994  0.2159005597706974
  0.4133360047327519  0.7488845868641659  0.7172029949459102
  0.4136045823009427  0.9987445791891216  0.2169280051922685
  0.4129077242186067  0.0008526056842288  0.7166719603872045
  0.4148474200529554  0.2454328168914346  0.2146210647400099
  0.4135801826859767  0.2530858528535910  0.7148463346186787
  0.3407950611655345  0.3766739377943376  0.2783201813384836
  0.3363216239820113  0.3747036221041503  0.7817833727952395
  0.3408625366055889  0.6072913615559938  0.2908062454541343
  0.3368576496895100  0.6255801713894618  0.7877295913712422
  0.3375280917010080  0.8731955085011247  0.2812354856899559
  0.3368547632183841  0.8755405412164223  0.7825099362890297
  0.3377048947915255  0.1242038525060234  0.2810086501182212
  0.3369085428744433  0.1264113218029484  0.7817526853671161
  0.3323610741757360  0.3744935308251867  0.0517989424771323
  0.3292913789060144  0.3874411113529320  0.5495751715906445
  0.3315535594760155  0.6252651242018820  0.0579732798592730
  0.3275302101200962  0.6244520551339610  0.5595955984209309
  0.3313146900902444  0.8752290545194602  0.0536500869117550
  0.3310571339028291  0.8748692551161436  0.5547626284820651
  0.3311201381354902  0.1264878597427348  0.0539000685959571
  0.3309992512919027  0.1290012275281494  0.5538127619138791
  0.4165861405386244  0.4972981211863302  0.4476449471405391
  0.4194604217922221  0.4996980711002041  0.9452157369565126
  0.4192446044917966  0.7494744009135457  0.4442967305925872
  0.4186135876657190  0.7506262490521073  0.9452862225890831
  0.4179221775509712  0.9993004315877750  0.4452731085010559
  0.4183330140986533  0.0000669939540129  0.9452828239469621
  0.4196311685907236  0.2482909896959249  0.4431064101988880
  0.4190160752013969  0.2496695293676345  0.9431971817425393
  0.7480292003100358  0.9997891433207171  0.1277932744272688
  0.7481822990661851  0.9997866256703674  0.6278506049368682
  0.7480199277277449  0.2497854442947944  0.1277668378475035
  0.7480603148954539  0.2497903210670815  0.6278373641835022
  0.7479852906646520  0.4998538686819836  0.1278779946445796
  0.7479738062900919  0.4998374224647509  0.6279494292598705
  0.7480254040277620  0.7498672236357150  0.1278588118579754
  0.7480686527164782  0.7498314890936449  0.6279325233770617
  0.5029976970507853  0.1234910300720861  0.3708444824019527
  0.5026187776224876  0.1249321956684455  0.8706775337278412
  0.5027917862344797  0.3742498606934564  0.3721382816104452
  0.5032415309770701  0.3752172627840014  0.8703530695034241
  0.5025514547702525  0.6239510644191653  0.3726471405653874
  0.5029545711867905  0.6250347175138151  0.8708892426551950
  0.5025831701295308  0.8743941541816406  0.3708423199295047
  0.5024624695113447  0.8751617793416498  0.8712489758953154
  0.5873589024903227  0.9992834124275873  0.2813975288844868
  0.5871698889713141  0.9997331685613284  0.7816219353495384
  0.5872631869068896  0.2493252901909719  0.2814082094497215
  0.5872570682608238  0.2497743012650985  0.7811789187532873
  0.5871702725040535  0.4996430464749895  0.2812453977325216
  0.5872222320005702  0.4999906806496797  0.7811226893324184
  0.5871270278035398  0.7496313667224982  0.2818711028719322
  0.5870977773818206  0.7498268066573734  0.7814894184821456
  0.6637010202742868  0.1245858347975120  0.2176456296817645
  0.6635947781928784  0.1246418473020655  0.7174508338787197
  0.6636727989728072  0.3746803338057662  0.2175140634732008
  0.6636351330443145  0.3747771951572087  0.7173982488356238
  0.6636453928553629  0.6248483720134794  0.2176628497712530
  0.6636013943762908  0.6248702360575962  0.7175338874084159
  0.6636732312818696  0.8745630601859092  0.2178086256907118
  0.6635667831281021  0.8747017288509831  0.7176186740709716
  0.6682442115229958  0.1246033591749575  0.4451170557381126
  0.6683681909272948  0.1247741076216656  0.9448239845303906
  0.6681988306922061  0.3747045808803841  0.4449378465962421
  0.6683189064939864  0.3748763514391142  0.9447331169232630
  0.6682157739318013  0.6247714455303458  0.4450727105321085
  0.6683133543134583  0.6248148713244183  0.9448755208867292
  0.6682610973972871  0.8748050079008615  0.4452687361581729
  0.6683622577547940  0.8748212336627318  0.9449458631849887
  0.5824321123524182  0.9993935062861667  0.0540791079028966
  0.5819376556719719  0.9992533872168911  0.5545197672673319
  0.5826764679268615  0.2491484253146967  0.0537787819275070
  0.5818308584681832  0.2493808472881168  0.5542281123895650
  0.5823472060622026  0.4999290732188729  0.0544661221578822
  0.5819928241092494  0.4996672189528488  0.5541103631015754
  0.5824824494036220  0.7502624011222565  0.0541709586628688
  0.5817613543644791  0.7496154973003896  0.5545396592482459
  0.9970561106276524  0.1248477123229094  0.1278966056623963
  0.9983617580946836  0.1255355002230213  0.6272223383602754
  0.9969687937700056  0.3749447447099169  0.1294857930584483
  0.9971831346828866  0.3754995396363133  0.6279769211287345
  0.9970698575224172  0.6250156175655114  0.1296659749632119
  0.9974239440159540  0.6247107347821053  0.6279992836706614
  0.9972100818345486  0.8749272781272296  0.1281274798889896
  0.9983918114279088  0.8746816946689920  0.6273478955843805
  0.7522060488458376  0.9997985593566542  0.3716693587020422
  0.7523153810115185  0.9998315024886070  0.8715917636343741
  0.7521152265439376  0.2497721000969423  0.3717069782393264
  0.7522896999422020  0.2497662837490768  0.8716586335667059
  0.7520705360527039  0.4998321698066739  0.3717863823491684
  0.7522975369738224  0.4998830217269973  0.8718119974551676
  0.7521309369328928  0.7498563362820584  0.3718130412806399
  0.7522908029396296  0.7499589242656046  0.8717533765751664
  0.8366708801482706  0.1248038518881475  0.2820018825526300
  0.8367500675055650  0.1248075594803665  0.7816704713631046
  0.8364789314550525  0.3748067850274168  0.2822398099733855
  0.8366385818452284  0.3748698784262078  0.7821486551599578
  0.8364864920866245  0.6250422504902997  0.2822557719108577
  0.8366457479299008  0.6250091318657667  0.7821692317240512
  0.8366810734551845  0.8749845026851552  0.2820311276546791
  0.8367685446039552  0.8749662226064735  0.7816696767602235
  0.9130629388103193  0.9998913047774218  0.2180357317932732
  0.9134145129318346  0.9999463595930282  0.7171261153329943
  0.9129600817346264  0.2498666894242451  0.2183426886098128
  0.9131089695456536  0.2500020845626160  0.7178676569110728
  0.9128313766105577  0.4999803966538087  0.2186599628210384
  0.9129319063028413  0.5000315096181914  0.7185987615564161
  0.9129795828734187  0.7500218712855283  0.2183717818978889
  0.9131545356704972  0.7499038476468379  0.7178634292286858
  0.9185492181520436  0.9999899784738220  0.4452888855693620
  0.9180123196388057  0.9998730028359327  0.9445504834268800
  0.9183305923820407  0.2497163882803978  0.4453218297463247
  0.9181134745724371  0.2497285569537439  0.9449939173437857
  0.9179853021255934  0.5000794419418121  0.4454500119934369
  0.9182721941299820  0.5000116052085272  0.9454884079800988
  0.9183564586309028  0.7503339693819455  0.4454509729575055
  0.9181512568591089  0.7502326806160254  0.9450783031421899
  0.8321682060714970  0.1248530034044335  0.0544982377223775
  0.8320769004764731  0.1249923313844735  0.5542654075818442
  0.8321400540205866  0.3748777314045907  0.0547979166950091
  0.8320479953622184  0.3749988800144442  0.5546664032518486
  0.8321592320566252  0.6249113785450341  0.0548114882894706
  0.8320681579002565  0.6247486937769247  0.5546832653915427
  0.8321833774620570  0.8748996739920980  0.0545135112314624
  0.8320899475124605  0.8747343923184995  0.5542827809806983