Co   Ga   O 
   1.00000000000000     
  24.9361379999999997   0.0000000000000000   0.0000000000000000
   0.0000000000000000  12.3494290000000007   0.0000000000000000
  -2.7833760000000001   0.0000000000000000  11.4316289999999992
Co   Ga   O 
1  128  192  
Direct
  0.2500000000000000  0.6250000000000000  0.2500000000000000  
  0.0644190896893310  0.6250000000000000  0.1778383717497277  
  0.0796113975016000  0.6250000000000000  0.6587700566763852  
  0.0800696442271967  0.8775337850811135  0.1612254960581202  
  0.0787299621260049  0.8759539044848962  0.6592919194232407  
  0.0798229459281651  0.1250000000000000  0.1577288008453472  
  0.0797739878046754  0.1250000000000000  0.6590633381583069  
  0.0800696442271967  0.3724662149188866  0.1612254960581202  
  0.0787299621260049  0.3740460955151037  0.6592919194232407  
  0.1713482516108169  0.7513386399169435  0.3491290280326884  
  0.1721369662315719  0.7524935212251490  0.8383021061667372  
  0.1713016831869668  0.0007292018587327  0.3442303643394600  
  0.1710773557098300  0.9997289101197848  0.8473756389641482  
  0.1713016831869668  0.2492707981412673  0.3442303643394600  
  0.1710773557098300  0.2502710898802155  0.8473756389641482  
  0.1713482516108169  0.4986613600830566  0.3491290280326884  
  0.1721369662315719  0.4975064787748512  0.8383021061667372  
  0.0432464868653870  0.7513805772530817  0.4025856167119866  
  0.0432863244896114  0.7493400012427281  0.8941481203744437  
  0.0450585766467842  0.0005382970908155  0.3995366564689953  
  0.0447233341861506  0.9999645736976650  0.8986017504673899  
  0.0450585766467842  0.2494617029091845  0.3995366564689953  
  0.0447233341861506  0.2500354263023346  0.8986017504673899  
  0.0432464868653870  0.4986194227469184  0.4025856167119866  
  0.0432863244896114  0.5006599987572719  0.8941481203744437  
  0.1452282223324465  0.6250000000000000  0.0641139672924617  
  0.2050276438974503  0.6250000000000000  0.5997430533443204  
  0.2076517771159562  0.8673690297185784  0.1074010596446179  
  0.2049106316465850  0.8761160333772789  0.6042974834958525  
  0.2060954782735253  0.1250000000000000  0.1046861389924162  
  0.2047749348621943  0.1250000000000000  0.6047787835336217  
  0.2076517771159562  0.3826309702814215  0.1074010596446179  
  0.2049106316465850  0.3738839666227281  0.6042974834958525  
  0.3286517483891832  0.7513386399169435  0.1508719719673090  
  0.3278630337684281  0.7524935212251490  0.6616988938332603  
  0.3286983168130331  0.0007292018587327  0.1557706356605446  
  0.3289226442901699  0.9997289101197848  0.6526253610358492  
  0.3286983168130331  0.2492707981412673  0.1557706356605446  
  0.3289226442901699  0.2502710898802155  0.6526253610358492  
  0.3286517483891832  0.4986613600830566  0.1508719719673090  
  0.3278630337684281  0.4975064787748512  0.6616988938332603  
  0.4355819103106737  0.6250000000000000  0.3221626282502698  
  0.4203886024984000  0.6250000000000000  0.8412309433236194  
  0.4199303557728033  0.8775337850811135  0.3387755039418773  
  0.4212700378739950  0.8759539044848962  0.8407090805767639  
  0.4201770540718349  0.1250000000000000  0.3422721991546573  
  0.4202260121953246  0.1250000000000000  0.8409376618416977  
  0.4199303557728033  0.3724662149188866  0.3387755039418773  
  0.4212700378739950  0.3740460955151037  0.8407090805767639  
  0.3547717776675535  0.6250000000000000  0.4358850327075336  
  0.2949723561025496  0.6250000000000000  0.9002569466556796  
  0.2923482228840439  0.8673690297185784  0.3925979403553774  
  0.2950893683534150  0.8761160333772789  0.8957025165041475  
  0.2939045217264746  0.1250000000000000  0.3953128610075793  
  0.2952250651378057  0.1250000000000000  0.8952212164663783  
  0.2923482228840439  0.3826309702814215  0.3925979403553774  
  0.2950893683534150  0.3738839666227281  0.8957025165041475  
  0.4567535131346130  0.7513805772530817  0.0974133832880159  
  0.4567136755103886  0.7493400012427281  0.6058518796255563  
  0.4549414233532158  0.0005382970908155  0.1004623435310073  
  0.4552766658138493  0.9999645736976650  0.6013982495326101  
  0.4549414233532158  0.2494617029091845  0.1004623435310073  
  0.4552766658138493  0.2500354263023346  0.6013982495326101  
  0.4567535131346130  0.4986194227469184  0.0974133832880159  
  0.4567136755103886  0.5006599987572719  0.6058518796255563  
  0.5791907192324657  0.1250000000000000  0.1570960045959822  
  0.5795090193457152  0.1250000000000000  0.6564400345947350  
  0.5799520503897603  0.3739515646291693  0.1565968447868734  
  0.5802616489756598  0.3739471688101228  0.6588008145218383  
  0.5800610290002235  0.6250000000000000  0.1570423913043973  
  0.5811623797922224  0.6250000000000000  0.6591305887500196  
  0.5799520503897603  0.8760484353708310  0.1565968447868734  
  0.5802616489756598  0.8760528311898773  0.6588008145218383  
  0.6706057252196912  0.0003414463793294  0.3432130554580848  
  0.6711256845935174  0.0002971519493850  0.8431624795992896  
  0.6706057252196912  0.2496585536206705  0.3432130554580848  
  0.6711256845935174  0.2497028480506150  0.8431624795992896  
  0.6717303098720120  0.4996327672723143  0.3422264634235386  
  0.6713609890053037  0.4996013217127433  0.8436770003480595  
  0.6717303098720120  0.7503672327276857  0.3422264634235386  
  0.6713609890053037  0.7503986782872568  0.8436770003480595  
  0.5439165266135142  0.9997907316292144  0.3967692517929650  
  0.5449264595793565  0.0005074699043784  0.8967988436096672  
  0.5439165266135142  0.2502092683707857  0.3967692517929650  
  0.5449264595793565  0.2494925300956216  0.8967988436096672  
  0.5503962760929358  0.4953903981328961  0.4009277367377365  
  0.5451519277403784  0.5000661472711230  0.8968204471586106  
  0.5503962760929358  0.7546096018671041  0.4009277367377365  
  0.5451519277403784  0.7499338527288770  0.8968204471586106  
  0.7049728286676076  0.1250000000000000  0.1026716698327304  
  0.7049405286230189  0.1250000000000000  0.6022261806797933  
  0.7052826075859925  0.3741689889230673  0.1023166424570232  
  0.7050043934069582  0.3747327399909457  0.6023379619073570  
  0.7051000539560303  0.6250000000000000  0.1019478832797658  
  0.7050634128633947  0.6250000000000000  0.6018465167226773  
  0.7052826075859925  0.8758310110769327  0.1023166424570232  
  0.7050043934069582  0.8752672600090542  0.6023379619073570  
  0.8293942747803088  0.0003414463793294  0.1567869445419152  
  0.8288743154064826  0.0002971519493850  0.6568375204007104  
  0.8293942747803088  0.2496585536206705  0.1567869445419152  
  0.8288743154064826  0.2497028480506150  0.6568375204007104  
  0.8282696901279880  0.4996327672723143  0.1577735365764615  
  0.8286390109946963  0.4996013217127433  0.6563229996519405  
  0.8282696901279880  0.7503672327276857  0.1577735365764615  
  0.8286390109946963  0.7503986782872568  0.6563229996519405  
  0.9208092807675344  0.1250000000000000  0.3429039954040179  
  0.9204909806542848  0.1250000000000000  0.8435599654052650  
  0.9200479496102396  0.3739515646291693  0.3434031552131265  
  0.9197383510243402  0.3739471688101228  0.8411991854781617  
  0.9199389709997764  0.6250000000000000  0.3429576086956030  
  0.9188376202077776  0.6250000000000000  0.8408694112499804  
  0.9200479496102396  0.8760484353708310  0.3434031552131265  
  0.9197383510243402  0.8760528311898773  0.8411991854781617  
  0.7950271713323924  0.1250000000000000  0.3973283301672696  
  0.7950594713769811  0.1250000000000000  0.8977738193202067  
  0.7947173924140075  0.3741689889230673  0.3976833575429767  
  0.7949956065930418  0.3747327399909457  0.8976620380926430  
  0.7948999460439697  0.6250000000000000  0.3980521167202342  
  0.7949365871366053  0.6250000000000000  0.8981534832773227  
  0.7947173924140075  0.8758310110769327  0.3976833575429767  
  0.7949956065930418  0.8752672600090542  0.8976620380926430  
  0.9560834733864858  0.9997907316292144  0.1032307482070350  
  0.9550735404206436  0.0005074699043784  0.6032011563903328  
  0.9560834733864858  0.2502092683707857  0.1032307482070350  
  0.9550735404206436  0.2494925300956216  0.6032011563903328  
  0.9496037239070642  0.4953903981328961  0.0990722632622637  
  0.9548480722596216  0.5000661472711230  0.6031795528413894  
  0.9496037239070642  0.7546096018671041  0.0990722632622637  
  0.9548480722596216  0.7499338527288770  0.6031795528413894  
  0.2493017559007373  0.7395491306787301  0.1359681243964656  
  0.2470493557802652  0.7505230956176892  0.6275369074238764  
  0.2480311352743626  0.9975301369714570  0.1295130735125061  
  0.2479951446252046  0.0002933716629379  0.6282709199418419  
  0.2480311352743626  0.2524698630285427  0.1295130735125061  
  0.2479951446252046  0.2497066283370622  0.6282709199418419  
  0.2493017559007373  0.5104508693212699  0.1359681243964656  
  0.2470493557802652  0.4994769043823107  0.6275369074238764  
  0.0020717638629250  0.6250000000000000  0.3669198560723068  
  0.0006183149576101  0.6250000000000000  0.8731704088131929  
  0.0017843105092105  0.8762589783848842  0.3709562921563193  
  0.0021956113875175  0.8741871213998708  0.8760929738312389  
  0.0023294780175119  0.1250000000000000  0.3722804360285149  
  0.0022048730854015  0.1250000000000000  0.8732269553161898  
  0.0017843105092105  0.3737410216151157  0.3709562921563193  
  0.0021956113875175  0.3758128786001294  0.8760929738312389  
  0.0850164935230874  0.7481501686815732  0.2826332503789878  
  0.0868298507790483  0.7501780357103397  0.7832305452163704  
  0.0872408528261774  0.9993146812222724  0.2838976608811917  
  0.0873782959764188  0.9990170132964652  0.7851127942129119  
  0.0872408528261774  0.2506853187777275  0.2838976608811917  
  0.0873782959764188  0.2509829867035348  0.7851127942129119  
  0.0850164935230874  0.5018498313184268  0.2826332503789878  
  0.0868298507790483  0.4998219642896602  0.7832305452163704  
  0.1711371615784804  0.6250000000000000  0.2251176076007821  
  0.1634503957305260  0.6250000000000000  0.7156053489179053  
  0.1622750591227358  0.8715923741930570  0.2179668652466990  
  0.1632852379633136  0.8753318729397508  0.7195132574761076  
  0.1634957849117770  0.1250000000000000  0.2189087297404604  
  0.1632488617720664  0.1250000000000000  0.7203206847683832  
  0.1622750591227358  0.3784076258069429  0.2179668652466990  
  0.1632852379633136  0.3746681270602490  0.7195132574761076  
  0.1643765223974987  0.6250000000000000  0.4454413520010952  
  0.1696868192980918  0.6250000000000000  0.9348917541736028  
  0.1681066046329281  0.8756425697914569  0.4468694324866794  
  0.1702730925729097  0.8715731354252256  0.9493376429909998  
  0.1687865663768338  0.1250000000000000  0.4467246139917617  
  0.1685729354040862  0.1250000000000000  0.9483129203905888  
  0.1681066046329281  0.3743574302085427  0.4468694324866794  
  0.1702730925729097  0.3784268645747744  0.9493376429909998  
  0.0858968135867756  0.7356417981965668  0.0553849476001241  
  0.0817510009589434  0.7508094820409121  0.5567451864332451  
  0.0820315110181349  0.9985836751107100  0.0557343294787896  
  0.0821683411923904  0.9998756976787352  0.5564142193902806  
  0.0820315110181349  0.2514163248892899  0.0557343294787896  
  0.0821683411923904  0.2501243023212720  0.5564142193902806  
  0.0858968135867756  0.5143582018034332  0.0553849476001241  
  0.0817510009589434  0.4991905179590883  0.5567451864332451  
  0.4979282361370750  0.6250000000000000  0.1330801439276932  
  0.4993816850423898  0.6250000000000000  0.6268295911868071  
  0.4982156894907895  0.8762589783848842  0.1290437078436807  
  0.4978043886124826  0.8741871213998708  0.6239070261687611  
  0.4976705219824880  0.1250000000000000  0.1277195639714851  
  0.4977951269145915  0.1250000000000000  0.6267730446838102  
  0.4982156894907895  0.3737410216151157  0.1290437078436807  
  0.4978043886124826  0.3758128786001294  0.6239070261687611  
  0.2506982440992628  0.7395491306787301  0.3640318756035343  
  0.2529506442197348  0.7505230956176892  0.8724630925761236  
  0.2519688647256373  0.9975301369714570  0.3704869264874940  
  0.2520048553747954  0.0002933716629379  0.8717290800581581  
  0.2519688647256373  0.2524698630285427  0.3704869264874940  
  0.2520048553747954  0.2497066283370622  0.8717290800581581  
  0.2506982440992628  0.5104508693212699  0.3640318756035343  
  0.2529506442197348  0.4994769043823107  0.8724630925761236  
  0.3288628384215195  0.6250000000000000  0.2748833923992154  
  0.3365496042694740  0.6250000000000000  0.7843956510820922  
  0.3377249408772642  0.8715923741930570  0.2820341347532985  
  0.3367147620366865  0.8753318729397508  0.7804877425238970  
  0.3365042150882231  0.1250000000000000  0.2810922702595371  
  0.3367511382279338  0.1250000000000000  0.7796803152316214  
  0.3377249408772642  0.3784076258069429  0.2820341347532985  
  0.3367147620366865  0.3746681270602490  0.7804877425238970  
  0.4149825064769080  0.7481501686815732  0.2173677496210167  
  0.4131701492209519  0.7501780357103397  0.7167704547836342  
  0.4127591471738226  0.9993146812222724  0.2161033391188056  
  0.4126217040235810  0.9990170132964652  0.7148882057870856  
  0.4127591471738226  0.2506853187777275  0.2161033391188056  
  0.4126217040235810  0.2509829867035348  0.7148882057870856  
  0.4149825064769080  0.5018498313184268  0.2173677496210167  
  0.4131701492209519  0.4998219642896602  0.7167704547836342  
  0.4141031864132244  0.7356417981965668  0.4446150523998759  
  0.4182489990410566  0.7508094820409121  0.9432548135667548  
  0.4179684889818652  0.9985836751107100  0.4442656705212104  
  0.4178316588076096  0.9998756976787352  0.9435857806097194  
  0.4179684889818652  0.2514163248892899  0.4442656705212104  
  0.4178316588076096  0.2501243023212720  0.9435857806097194  
  0.4141031864132244  0.5143582018034332  0.4446150523998759  
  0.4182489990410566  0.4991905179590883  0.9432548135667548  
  0.3356234776025013  0.6250000000000000  0.0545586479989048  
  0.3303131807019081  0.6250000000000000  0.5651082458263973  
  0.3318933953670720  0.8756425697914569  0.0531305675133207  
  0.3297269074270902  0.8715731354252256  0.5506623570090002  
  0.3312134336231662  0.1250000000000000  0.0532753860082385  
  0.3314270645959138  0.1250000000000000  0.5516870796094111  
  0.3318933953670720  0.3743574302085427  0.0531305675133207  
  0.3297269074270902  0.3784268645747744  0.5506623570090002  
  0.7482364716531681  0.0004783449273936  0.1282995588875788  
  0.7478563347495202  0.0002020623541992  0.6278607330567988  
  0.7482364716531681  0.2495216550726064  0.1282995588875788  
  0.7478563347495202  0.2497979376458007  0.6278607330567988  
  0.7477557157532657  0.4998056060521628  0.1283732535618621  
  0.7477583705224202  0.4998515126645994  0.6276153030641649  
  0.7477557157532657  0.7501943939478373  0.1283732535618621  
  0.7477583705224202  0.7501484873354006  0.6276153030641649  
  0.5009340215543620  0.1250000000000000  0.3705463818004351  
  0.5013952466584337  0.1250000000000000  0.8699453518069316  
  0.5010808721898092  0.3782152524949399  0.3740336269483528  
  0.5021058878303909  0.3748769987566355  0.8696019975173621  
  0.5103383304500665  0.6250000000000000  0.3793272018990026  
  0.5017386257642649  0.6250000000000000  0.8711270628041287  
  0.5010808721898092  0.8717847475050602  0.3740336269483528  
  0.5021058878303909  0.8751230012433646  0.8696019975173621  
  0.5860541696219347  0.9995492083255360  0.2821392302513068  
  0.5865308548889375  0.0000004079477954  0.7813026029701235  
  0.5860541696219347  0.2504507916744639  0.2821392302513068  
  0.5865308548889375  0.2499995920522046  0.7813026029701235  
  0.5878138204236992  0.4985803466347561  0.2808906265606080  
  0.5869936818746351  0.4998890989060814  0.7822331887642204  
  0.5878138204236992  0.7514196533652442  0.2808906265606080  
  0.5869936818746351  0.7501109010939183  0.7822331887642204  
  0.6627412180138148  0.1250000000000000  0.2177147356947942  
  0.6630071503587530  0.1250000000000000  0.7174543979929409  
  0.6633928589533340  0.3741533231485104  0.2173663464717897  
  0.6636892607674950  0.3741233958815477  0.7186681281917485  
  0.6633541593062507  0.6250000000000000  0.2171932335252893  
  0.6639888392632585  0.6250000000000000  0.7187794222133271  
  0.6633928589533340  0.8758466768514898  0.2173663464717897  
  0.6636892607674950  0.8758766041184526  0.7186681281917485  
  0.6676647757883314  0.1250000000000000  0.4453553071055777  
  0.6679853451654190  0.1250000000000000  0.9453842213052041  
  0.6678288360306549  0.3752190916747594  0.4451246014305027  
  0.6680610920330841  0.3747340930072683  0.9455760850857114  
  0.6678609364449145  0.6250000000000000  0.4445510689346466  
  0.6680497597767425  0.6250000000000000  0.9453567501828706  
  0.6678288360306549  0.8747809083252405  0.4451246014305027  
  0.6680610920330841  0.8752659069927317  0.9455760850857114  
  0.5813961373631684  0.0004849944208181  0.0538735263721710  
  0.5810484095676929  0.9997466001267749  0.5535604437097000  
  0.5813961373631684  0.2495150055791819  0.0538735263721710  
  0.5810484095676929  0.2502533998732253  0.5535604437097000  
  0.5805999220831273  0.5000427129549601  0.0543846248617899  
  0.5839958039784844  0.4987351060936195  0.5577072076713243  
  0.5805999220831273  0.7499572870450402  0.0543846248617899  
  0.5839958039784844  0.7512648939063807  0.5577072076713243  
  0.9990659784456380  0.1250000000000000  0.1294536181995649  
  0.9986047533415664  0.1250000000000000  0.6300546481930684  
  0.9989191278101908  0.3782152524949399  0.1259663730516472  
  0.9978941121696092  0.3748769987566355  0.6303980024826379  
  0.9896616695499336  0.6250000000000000  0.1206727981009974  
  0.9982613742357352  0.6250000000000000  0.6288729371958713  
  0.9989191278101908  0.8717847475050602  0.1259663730516472  
  0.9978941121696092  0.8751230012433646  0.6303980024826379  
  0.7517635283468319  0.0004783449273936  0.3717004411124211  
  0.7521436652504798  0.0002020623541992  0.8721392669432012  
  0.7517635283468319  0.2495216550726064  0.3717004411124211  
  0.7521436652504798  0.2497979376458007  0.8721392669432012  
  0.7522442842467343  0.4998056060521628  0.3716267464381379  
  0.7522416294775798  0.4998515126645994  0.8723846969358351  
  0.7522442842467343  0.7501943939478373  0.3716267464381379  
  0.7522416294775798  0.7501484873354006  0.8723846969358351  
  0.8372587819861852  0.1250000000000000  0.2822852643052058  
  0.8369928496412470  0.1250000000000000  0.7825456020070591  
  0.8366071410466660  0.3741533231485104  0.2826336535282103  
  0.8363107392325050  0.3741233958815477  0.7813318718082515  
  0.8366458406937493  0.6250000000000000  0.2828067664747106  
  0.8360111607367415  0.6250000000000000  0.7812205777866729  
  0.8366071410466660  0.8758466768514898  0.2826336535282103  
  0.8363107392325050  0.8758766041184526  0.7813318718082515  
  0.9139458303780652  0.9995492083255360  0.2178607697486933  
  0.9134691451110624  0.0000004079477954  0.7186973970298765  
  0.9139458303780652  0.2504507916744639  0.2178607697486933  
  0.9134691451110624  0.2499995920522046  0.7186973970298765  
  0.9121861795763008  0.4985803466347561  0.2191093734393920  
  0.9130063181253648  0.4998890989060814  0.7177668112357796  
  0.9121861795763008  0.7514196533652442  0.2191093734393920  
  0.9130063181253648  0.7501109010939183  0.7177668112357796  
  0.9186038626368316  0.0004849944208181  0.4461264736278290  
  0.9189515904323072  0.9997466001267749  0.9464395562903000  
  0.9186038626368316  0.2495150055791819  0.4461264736278290  
  0.9189515904323072  0.2502533998732253  0.9464395562903000  
  0.9194000779168728  0.5000427129549601  0.4456153751382102  
  0.9160041960215156  0.4987351060936195  0.9422927923286756  
  0.9194000779168728  0.7499572870450402  0.4456153751382102  
  0.9160041960215156  0.7512648939063807  0.9422927923286756  
  0.8323352242116686  0.1250000000000000  0.0546446928944222  
  0.8320146548345810  0.1250000000000000  0.5546157786947961  
  0.8321711639693451  0.3752190916747594  0.0548753985694972  
  0.8319389079669159  0.3747340930072683  0.5544239149142886  
  0.8321390635550855  0.6250000000000000  0.0554489310653534  
  0.8319502402232575  0.6250000000000000  0.5546432498171294  
  0.8321711639693451  0.8747809083252405  0.0548753985694972  
  0.8319389079669159  0.8752659069927317  0.5544239149142886  
