Co   Ga   O
   1.00000000000000
    24.9361379999999997    0.0000000000000000    0.0000000000000000
     0.0000000000000000   12.3494290000000007    0.0000000000000000
    -2.7833760000000001    0.0000000000000000   11.4316289999999992
   Co   Ga   O
     1   128   192
Direct
  0.2501067268582894  0.5000000000000000  0.5001850736343473
  0.0767436128239568  0.6269169490463010  0.1558215393524267
  0.0767020179071264  0.6251843091956665  0.6606239996399805
  0.0792966727633488  0.8756820128634303  0.1575577178009914
  0.0787358222808968  0.8750018375011456  0.6579648163951884
  0.0792965844992470  0.1243179818142991  0.1575574066053781
  0.0787358870182465  0.1249982301393888  0.6579644715433045
  0.0767437973126620  0.3730830562759769  0.1558216766655280
  0.0767020610473520  0.3748156231637990  0.6606242327324165
  0.1722740195624891  0.7507979976339471  0.3422127632323737
  0.1691448080760638  0.7512687982588637  0.8470199720990805
  0.1710210866434381  0.0000000777134090  0.3434271593151572
  0.1700784668065980  0.9999996280526418  0.8438053829860416
  0.1722742793316411  0.2492018645362309  0.3422125000965778
  0.1691447983130716  0.2487304768776751  0.8470199607290112
  0.1636872177928544  0.5000000601164203  0.3270421300077060
  0.1687308409111175  0.5000000968108154  0.8496288182676560
  0.0449336276452368  0.7498147206983442  0.3993469911115139
  0.0434627075602297  0.7507281725706254  0.8988089702468371
  0.0449430819988489  0.0000000426936424  0.3984720515634848
  0.0444874127747129  0.9999999482674440  0.8983256569136965
  0.0449334621082909  0.2501850043819347  0.3993471250062297
  0.0434623346758788  0.2492719375153453  0.8988092682739832
  0.0427691150090065  0.5000002322260784  0.4018657555054681
  0.0431864461531147  0.4999999416465855  0.9002444373904757
  0.2066273535303285  0.6246934725926568  0.1036163475775048
  0.2003333678603022  0.6328982598452485  0.6137379612602452
  0.2063664793797007  0.8748798901543050  0.1042648928331487
  0.2042998638806457  0.8770241633151628  0.6041116027670467
  0.2063666621655547  0.1251199567967719  0.1042649370087133
  0.2042996339380030  0.1229757729263951  0.6041116386120874
  0.2066274592296071  0.3753066804562660  0.1036159022038895
  0.2003335019518951  0.3671018039131930  0.6137380102158083
  0.3312601730558881  0.7512948634042429  0.1534994468882103
  0.3280674826071527  0.7507398995098317  0.6583189783491196
  0.3303527181406176  0.0000000327574199  0.1566870465266164
  0.3294582387020831  0.0000002320608843  0.6571340200560987
  0.3312599787896174  0.2487051459676528  0.1534996989072595
  0.3280675503784204  0.2492600612348282  0.6583190565093108
  0.3316590065065783  0.4999999578706849  0.1508506696078998
  0.3365547088234488  0.4999998071944631  0.6736072338273666
  0.4236523221135585  0.6251857598001852  0.3399603322207706
  0.4236054592936755  0.6269053639766774  0.8446520957036735
  0.4216423658983453  0.8750126036794805  0.3426428457123362
  0.4211127256370340  0.8756337417516167  0.8430867356717554
  0.4216421877258321  0.1249874514556445  0.3426429105789905
  0.4211125428851581  0.1243662832716096  0.8430866285876290
  0.4236524870726413  0.3748141850646902  0.3399604752286091
  0.4236055911110059  0.3730946110000966  0.8446518987298229
  0.3000386063931381  0.6328631310844770  0.3868013584509452
  0.2937336083770403  0.6247067197027879  0.8969449321143457
  0.2961168001898668  0.8769722092589326  0.3964208722516240
  0.2940668727949226  0.8748567558899911  0.8962372252399307
  0.2961166073079679  0.1230280388836582  0.3964213129302571
  0.2940668281936009  0.1251434308593203  0.8962369641646377
  0.3000388707069782  0.3671366207729317  0.3868010423080218
  0.2937332686448584  0.3752930935479008  0.8969452388826524
  0.4568865186982636  0.7507143441389315  0.1017059693388409
  0.4554187197841790  0.7497979785341857  0.6012165045035240
  0.4559419544006542  0.0000001332227271  0.1023410583254440
  0.4554897357921774  0.0000000443650165  0.6022353539808768
  0.4568865514372449  0.2492856215680092  0.1017060639641192
  0.4554190317316957  0.2502020876772842  0.6012163106503985
  0.4571043130881768  0.4999999010703391  0.1002499764105844
  0.4576219531001154  0.4999998894235134  0.5988142587581349
  0.5803357171466169  0.1245420898300717  0.1576030154815150
  0.5797634085161923  0.1248190191874708  0.6577683854410515
  0.5805238475349248  0.3746755625994493  0.1572581743315146
  0.5803910017509414  0.3745544308551865  0.6575988352745950
  0.5805241953444287  0.6253242204107466  0.1572583820847248
  0.5803911955873550  0.6254454713315220  0.6575987614013852
  0.5803356914892953  0.8754581271597321  0.1576031495886475
  0.5797631188783107  0.8751810786258206  0.6577685515220743
  0.6712904965743559  0.0000000456489744  0.3438021077243394
  0.6710730003715525  0.9999998564148953  0.8434135815720321
  0.6713972104910165  0.2497956095946548  0.3435026819563595
  0.6713111698309525  0.2496913774796746  0.8433826431477368
  0.6715125323169037  0.4999999239118509  0.3432497989642194
  0.6713662111442955  0.4999998515343620  0.8432394085802447
  0.6713972659601818  0.7502044208445200  0.3435029836787683
  0.6713113378991501  0.7503089145710612  0.8433826660018039
  0.5454181804360195  0.9999998842853230  0.3976104610450635
  0.5450874330654061  0.0000001575177464  0.8974496080224424
  0.5463523679975808  0.2492784344955430  0.3978686189116758
  0.5461757053029599  0.2489872182559686  0.8977683644324324
  0.5469436811312899  0.5000001771331739  0.3977294665151114
  0.5464588754147881  0.4999999243709183  0.8975914114748470
  0.5463522252390718  0.7507215040859603  0.3978683835310719
  0.5461757857052261  0.7510126998553669  0.8977684422939256
  0.7053019100584589  0.1248087996207431  0.1027093286769107
  0.7052230408217401  0.1248749356488376  0.6029274992400839
  0.7053322524265805  0.3748705632834521  0.1024108552155175
  0.7053254930776131  0.3748743527537181  0.6025803967384719
  0.7053319454170729  0.6251294064053060  0.1024110022807966
  0.7053254100140872  0.6251254300422352  0.6025805085209840
  0.7053018067118298  0.8751912306904982  0.1027094755884496
  0.7052232975988251  0.8751252815552090  0.6029275245582706
  0.8292783098532905  0.0000001912616341  0.1576026115270774
  0.8290967584799028  0.9999999233401340  0.6572586096120808
  0.8290304233759153  0.2496982760298455  0.1576072759569311
  0.8290039118526641  0.2497628682354397  0.6575392471684081
  0.8289480736814870  0.4999998622292239  0.1576439056423913
  0.8288833218282564  0.4999998671056858  0.6577600996820231
  0.8290306506069492  0.7503016704793035  0.1576076142516424
  0.8290036097668269  0.7502373413187408  0.6575393500591529
  0.9206182136581018  0.1248309084029685  0.3431426984796718
  0.9200541216375073  0.1245275055519529  0.8434040881412890
  0.9199766561036838  0.3745985847588771  0.3432268450325301
  0.9198203358160074  0.3746724987071238  0.8437077364806764
  0.9199765670270125  0.6254014853547302  0.3432269137425313
  0.9198206245746138  0.6253276879308308  0.8437079996927490
  0.9206181777593583  0.8751690214834242  0.3431426109422989
  0.9200539492371094  0.8754723078100923  0.8434037364750160
  0.7951694581729807  0.1248610233720974  0.3981251959164636
  0.7950311079815199  0.1248090929376856  0.8983034266467040
  0.7950725839316217  0.3748725409115626  0.3984456347009112
  0.7949636324912756  0.3748665764353634  0.8985243234333237
  0.7950725999613379  0.6251272909035902  0.3984460417008419
  0.7949640331758597  0.6251332576875186  0.8985245664226821
  0.7951696627324931  0.8751391448127500  0.3981249966207654
  0.7950308534241349  0.8751910729394322  0.8983035808551971
  0.9553030564446890  0.9999997670790890  0.1035189879854153
  0.9549332564331968  0.0000001705656274  0.6032798546565893
  0.9542496665135083  0.2489650172888174  0.1031934030116151
  0.9540029670114535  0.2492912340608449  0.6030061996853409
  0.9539496295812288  0.4999999652510425  0.1033734056614738
  0.9534071995803444  0.5000001672616534  0.6031807792355561
  0.9542499439390504  0.7510352503810513  0.1031937740366747
  0.9540028702274966  0.7507084281118740  0.6030061206934239
  0.2493934276735525  0.7494491375102835  0.1287393330238509
  0.2467211933149698  0.7512214198106809  0.6313385291151266
  0.2490215691087865  0.9999999801902604  0.1296166685967331
  0.2481747488815964  0.9999998652228541  0.6290213329479255
  0.2493934279238838  0.2505506677644850  0.1287393220966486
  0.2467213375007389  0.2487789334301903  0.6313381937584099
  0.2497531313240613  0.5000002145349782  0.1228186895514755
  0.2415528315591144  0.4999997815362747  0.6525182720779236
  0.0016386093040182  0.6257442600078879  0.3734280886608270
  0.0013069891222257  0.6254209029880278  0.8736631613299777
  0.0026466356221948  0.8747203843146286  0.3727360101677789
  0.0014582533219118  0.8757771479879409  0.8729222229147477
  0.0026465634125503  0.1252797879945285  0.3727356019296778
  0.0014578610519299  0.1242227792099286  0.8729219516728886
  0.0016389607612779  0.3742555676829555  0.3734282570046228
  0.0013071516145813  0.3745791698141027  0.8736631530294459
  0.0886597904610498  0.7464762262637991  0.2863408339033027
  0.0856305558245628  0.7513931086489480  0.7842720741088960
  0.0877192839319988  0.0000000598760153  0.2835563817596365
  0.0866583456427587  0.9999998547557851  0.7835312384995904
  0.0886599544632305  0.2535237521161546  0.2863409249937375
  0.0856302994649147  0.2486071405888376  0.7842718797588879
  0.0845477262225144  0.4999999617440309  0.2843410498638242
  0.0853411046251620  0.4999998960064360  0.7855648594638492
  0.1636059204584570  0.6236075321062649  0.2182967123351058
  0.1601479462379120  0.6264359304177489  0.7252784086272775
  0.1638860467868656  0.8739348067503351  0.2186702691891369
  0.1627138868663669  0.8749571633399321  0.7192765000855875
  0.1638862637985898  0.1260652866376677  0.2186700814696934
  0.1627140701208949  0.1250426925950699  0.7192765494471051
  0.1636056645350749  0.3763923745057320  0.2182970225515983
  0.1601480483605814  0.3735642136472495  0.7252782393175913
  0.1777933821248729  0.6178425377096188  0.4489244603787338
  0.1669346452214816  0.6258667638838747  0.9494340028003021
  0.1694599405752644  0.8738611032507880  0.4460229046393094
  0.1685335748171255  0.8757498279979667  0.9479862372822339
  0.1694598451940539  0.1261388450346828  0.4460228928334998
  0.1685337012940949  0.1242501888766839  0.9479861716295417
  0.1777931311206067  0.3821575140049104  0.4489245255322271
  0.1669346130895667  0.3741332192414741  0.9494341287532533
  0.0814611972926026  0.7504313342207428  0.0560052022880720
  0.0833390755763555  0.7480039184981940  0.5562516064929474
  0.0821950622901318  0.0000000091260546  0.0554416382798378
  0.0825461475873924  0.9999999423723835  0.5554688223119139
  0.0814610944523277  0.2495686503402080  0.0560052178638154
  0.0833392804642453  0.2519963256763288  0.5562517264932060
  0.0807996870971804  0.5000000063129946  0.0575918064064779
  0.0824192532423291  0.4999998134530941  0.5576442336044523
  0.4990216548267855  0.6253770498607183  0.1270449825043808
  0.4987259293859377  0.6257533446437334  0.6273617009748881
  0.4989276171880507  0.8757268793381139  0.1278715284149822
  0.4977376561127277  0.8746512679232075  0.6280007558881492
  0.4989275830680230  0.1242731299214447  0.1278715703204906
  0.4977374157405043  0.1253484858195204  0.6280003939005679
  0.4990218120018514  0.3746229408797233  0.1270450198117611
  0.4987263082386487  0.3742464016135399  0.6273619291201206
  0.2536307726096073  0.7512491479770055  0.3690839957595375
  0.2510041307419539  0.7494732612766170  0.8717263068576907
  0.2522905166838683  0.9999999556301375  0.3715417551648968
  0.2514178235076642  0.9999999061581732  0.8709667222203141
  0.2536306284024224  0.2487506741556242  0.3690838198810755
  0.2510038910015592  0.2505269906507936  0.8717262542041718
  0.2588195570582540  0.5000002222372260  0.3480454698377492
  0.2506378518806689  0.4999998419144163  0.8774872059670072
  0.3402178881104999  0.6265012883495032  0.2752453453457120
  0.3367187054212185  0.6236855079725803  0.7822364319798948
  0.3376851329593363  0.8749579260536988  0.2812056978042167
  0.3365226296278853  0.8739009728132658  0.7818437606819451
  0.3376848309205583  0.1250422325267354  0.2812054560072343
  0.3365224002704030  0.1260990553328526  0.7818438088492321
  0.3402181313906479  0.3734985530700696  0.2752456549934932
  0.3367188439298222  0.3763144638813012  0.7822366177017185
  0.4147643601064274  0.7513896958134115  0.2162938163511966
  0.4116811838728057  0.7463575292140675  0.7142114320310764
  0.4137712838633258  0.0000002280001752  0.2171741710141546
  0.4127444565047446  0.9999999858571584  0.7171630907463404
  0.4147642221604812  0.2486102512052896  0.2162937767017253
  0.4116814514168370  0.2536425104304798  0.7142113233053262
  0.4149936545209225  0.4999998249811242  0.2150372355637288
  0.4157286019988842  0.4999999744982944  0.7162400146827456
  0.4170120793660727  0.7480072797259322  0.4443174958044285
  0.4188774282536897  0.7504122361526230  0.9445826276690394
  0.4178326393831560  0.0000001653528301  0.4452308549058541
  0.4182190952567844  0.9999997488565171  0.9451940235499628
  0.4170119963502527  0.2519926885154293  0.4443176379444527
  0.4188771362551293  0.2495873445764161  0.9445824115726080
  0.4179456813706557  0.4999998664058083  0.4429929745215843
  0.4195116893342546  0.5000001704144381  0.9428911184289229
  0.3334879782391216  0.6258691796395962  0.0510614082363055
  0.3224108231166167  0.6178020670779470  0.5516342415753713
  0.3319596939835156  0.8757447509590239  0.0525161881651382
  0.3310062280273527  0.8737462465946001  0.5545194678305372
  0.3319598971042074  0.1242554022437528  0.0525161176751990
  0.3310064954029642  0.1262536206792569  0.5545192426120515
  0.3334879313400326  0.3741306671576271  0.0510614207067710
  0.3224108184358382  0.3821980656481959  0.5516344699452064
  0.7482044344345959  0.9999997901325344  0.1286745668578692
  0.7481105404791752  0.9999999714758943  0.6285756148096213
  0.7480927570921047  0.2498570194712837  0.1286478037008926
  0.7480794890786130  0.2498681885444534  0.6285944290336730
  0.7480512071859272  0.4999997674735539  0.1285609828325241
  0.7480364881760385  0.4999999986571169  0.6285834255783376
  0.7480928103482419  0.7501434229226278  0.1286476808718994
  0.7480791432707862  0.7501318413225422  0.6285945666830174
  0.5022995704475637  0.1253121652567781  0.3724803992582318
  0.5018699062167632  0.1252414526751372  0.8704928355163649
  0.5035192472170696  0.3750332954987029  0.3719344803353502
  0.5034022078632814  0.3745653255371309  0.8712086879699592
  0.5035193215816055  0.6249667111851593  0.3719348453253227
  0.5034018727380241  0.6254344791933621  0.8712085405209302
  0.5022997744980078  0.8746878280593594  0.3724803473787285
  0.5018700588723722  0.8747587425943706  0.8704927422785492
  0.5870415261236310  0.0000001026817458  0.2824082124068999
  0.5866246262003492  0.0000002607375293  0.7820524599753826
  0.5872810495053208  0.2497667076356051  0.2819129175395114
  0.5871570917418200  0.2495425681947816  0.7818587175427755
  0.5874806036192024  0.5000000847055688  0.2815064705272443
  0.5872450616044481  0.4999998047749656  0.7815390163052673
  0.5872810484835177  0.7502331049770802  0.2819128636979864
  0.5871573093413051  0.7504578662927226  0.7818588244935117
  0.6636279139725400  0.1246883199569866  0.2183156195878198
  0.6634131768310181  0.1246391483789189  0.7182013752437106
  0.6637230737668005  0.3748066942125083  0.2180790884623811
  0.6636207031443786  0.3748243325943083  0.7180688645072637
  0.6637230197428152  0.6251935023820762  0.2180790033402495
  0.6636207625053285  0.6251755885638838  0.7180684451844046
  0.6636276385457546  0.8753114834484289  0.2183158464080180
  0.6634129791028767  0.8753609304628889  0.7182017977125403
  0.6682410404852451  0.1250086682585778  0.4458711002434215
  0.6682162332278156  0.1249507945284597  0.9457056623475667
  0.6682778329014476  0.3750267931024599  0.4455554893304710
  0.6682501960653623  0.3749595818412372  0.9454258568799694
  0.6682774516033398  0.6249731761313242  0.4455552125297588
  0.6682497578094951  0.6250405302460268  0.9454256214601791
  0.6682414467452876  0.8749913625076385  0.4458711527409407
  0.6682162796000302  0.8750490933842763  0.9457058658820502
  0.5820136318248034  0.9999998808950110  0.0541543079332251
  0.5813557606382936  0.0000002131128127  0.5549143277536805
  0.5822842172214812  0.2494343056005061  0.0546950987378353
  0.5821656569456165  0.2495287239551504  0.5549786082003249
  0.5822892800394355  0.5000000511592759  0.0546338125179978
  0.5820382344779137  0.5000000622889615  0.5551086969282969
  0.5822844156253558  0.7505657623452140  0.0546950367599636
  0.5821659038740320  0.7504710006430680  0.5549788078955967
  0.9985520204700017  0.1251944173560798  0.1303317428209214
  0.9980555664239135  0.1253070123604667  0.6282939099178538
  0.9969936274732437  0.3745657027097047  0.1297465616682323
  0.9968491112172789  0.3750375294968254  0.6290265058091580
  0.9969936941226710  0.6254344630611874  0.1297465501323152
  0.9968492551956974  0.6249623095438864  0.6290264062203408
  0.9985517545972095  0.8748054168730279  0.1303318093503310
  0.9980558560106432  0.8746931485988220  0.6282941386245785
  0.7522693760472491  0.0000000709802777  0.3724816685346332
  0.7521404335026095  0.0000001285105569  0.8723854870853325
  0.7523206441800856  0.2498685729953939  0.3724323979130782
  0.7522302053333692  0.2498387526483377  0.8723701755780062
  0.7523667850046977  0.5000000145566119  0.3724437154056784
  0.7522598301212671  0.4999999128825294  0.8723630352597398
  0.7523202365326231  0.7501313414677094  0.3724326741457256
  0.7522301034270102  0.7501612059585762  0.8723699449814013
  0.8369567047411032  0.1246860547842501  0.2827920335451599
  0.8367314871190666  0.1247068913619668  0.7827211255851245
  0.8367306173111909  0.3748386100485016  0.2828460130936533
  0.8366322561675822  0.3747852166015307  0.7829491414323100
  0.8367303834567049  0.6251614724489207  0.2828457113156090
  0.8366320784472939  0.6252148153035861  0.7829492709242685
  0.8369569893502039  0.8753138627183276  0.2827923708684030
  0.8367318017505804  0.8752930767329163  0.7827210509779028
  0.9137219117946703  0.0000002012204092  0.2188374866778420
  0.9133491606422177  0.0000000691482711  0.7185704068607709
  0.9132226669074452  0.2495484949380889  0.2190131099812982
  0.9130883477110006  0.2497539517196829  0.7190230885145069
  0.9131001893366645  0.5000001445324145  0.2192936701181768
  0.9128584508906802  0.4999998036514697  0.7194199479724490
  0.9132230436513649  0.7504511593090807  0.2190127061471480
  0.9130886838563486  0.7502461754805761  0.7190227853902115
  0.9189956639994340  0.0000001650851829  0.4459691119011633
  0.9183552859805493  0.9999998186011751  0.9468357990569687
  0.9182557603978484  0.2495837107223552  0.4458763838972803
  0.9181401851466708  0.2494008599315284  0.9462770614446535
  0.9183230781863133  0.5000000174375288  0.4457933898166503
  0.9181452546268399  0.4999999251716503  0.9463144825018890
  0.9182558585333144  0.7504161067549330  0.4458761832397630
  0.9181402091182582  0.7505993962956463  0.9462769880604321
  0.8321068146787948  0.1249568921361286  0.0553021940001493
  0.8322028806762671  0.1249903587955340  0.5551628199049576
  0.8320579885808839  0.3749361387518269  0.0555235601696424
  0.8321343878599438  0.3750027995512477  0.5554557843075930
  0.8320579690294976  0.6250638939404930  0.0555231655699472
  0.8321341532345402  0.6249972836113351  0.5554559705358916
  0.8321067074795675  0.8750430751715517  0.0553022072928549
  0.8322028388058738  0.8750095580418831  0.5551629561555915
