Co Ga O
   1.00000000000000
    24.9361379999999997    0.0000000000000000    0.0000000000000000
     0.0000000000000000   12.3494290000000007    0.0000000000000000
    -2.7833760000000001    0.0000000000000000   11.4316289999999992
   Co   Ga   O
     1   128   192
Direct
  0.3808105746448496  0.6244011747860634  0.4713150319562239
  0.0774913434672117  0.6249933069255303  0.1552557497912696
  0.0781771510692914  0.6250012486314032  0.6568550095768306
  0.0775086602511430  0.8760886065374528  0.1548278361808769
  0.0783506335168051  0.8751296840892805  0.6565722327584201
  0.0779011156540037  0.1249927305948763  0.1560198132878422
  0.0785531597074339  0.1250001761533382  0.6565174176947361
  0.0775175945846653  0.3739031473908527  0.1548495050575925
  0.0783562808309610  0.3748751836282306  0.6566049316766578
  0.1663042152922542  0.7526872967263264  0.3412793491848454
  0.1698569154581623  0.7503619106582903  0.8416391747725003
  0.1692738595100338  0.0007116695810132  0.3414713887484818
  0.1699932916277880  0.0001623003832859  0.8424985212174363
  0.1692769358844114  0.2491491733445923  0.3415009023516999
  0.1699972355010716  0.2497170334129007  0.8425313401124102
  0.1663102706577084  0.4971680114755838  0.3413196004487753
  0.1698655834520117  0.4995133547359975  0.8416809127466605
  0.0433882327052985  0.7502101825528051  0.3980405818305226
  0.0442014297474538  0.7500828389916527  0.8968322811958707
  0.0442896320471302  0.0002401442465829  0.3974087288697290
  0.0440975027900641  0.0002077510258728  0.8964733730020100
  0.0442909729042082  0.2498096006847119  0.3974244579227028
  0.0440972510427279  0.2497801265087271  0.8964876067899010
  0.0433884791131082  0.4998322896747986  0.3980559930321997
  0.0442038149382830  0.4999011019052035  0.8968430227130035
  0.2024143372529595  0.6249123232624207  0.1003006269295058
  0.2033638084613759  0.6249325518590106  0.6022270946249642
  0.2037591783209203  0.8751632638957253  0.1028933866111630
  0.2034400248904928  0.8760967487156264  0.6015807892652438
  0.2047599635939624  0.1249140706968644  0.1029278467272748
  0.2044263828596850  0.1249051948120549  0.6021522084594638
  0.2037950950231305  0.3746870995598118  0.1029617869828448
  0.2034460777385269  0.3737293305960659  0.6016401512199567
  0.3270724830712951  0.7510289764968894  0.1568749129075940
  0.3265444288956375  0.7534802022766031  0.6615598521819919
  0.3285244939895673  0.0006414904589803  0.1555945480116333
  0.3285010401257598  0.0005859005939363  0.6556783975181393
  0.3285326128139197  0.2490407687369848  0.1556788433134139
  0.3284902292480348  0.2490728106410805  0.6557464471955921
  0.3271143983341549  0.4987495931409887  0.1570561921260595
  0.3265194800687471  0.4961955372606128  0.6617129284553509
  0.4315537989411803  0.6249706802695615  0.3129596553849919
  0.4207423525472574  0.6248473029002264  0.8388054582310969
  0.4211498201541721  0.8779653132023230  0.3407330028754964
  0.4205758680486424  0.8763992630211629  0.8419500879124460
  0.4203996049021066  0.1246380572373963  0.3431864261115205
  0.4204112835414479  0.1248475662375478  0.8428515098292580
  0.4211330700570006  0.3714051291429188  0.3409659562113148
  0.4205481968568645  0.3733285349471351  0.8421276089037200
  0.2791310353759863  0.6249060080047030  0.3797935220932379
  0.2944939029717512  0.6248916481319615  0.8988042530728715
  0.2941439848816327  0.8763571334240764  0.3972725341860866
  0.2941044550763968  0.8751221868352923  0.8980693555213924
  0.2940308411658368  0.1248685742149998  0.3963773538087756
  0.2943809564242409  0.1248781422597356  0.8961710109911015
  0.2941435566447933  0.3734088787263452  0.3973954612215826
  0.2941095315632578  0.3746475558431923  0.8982503155423840
  0.4562185285655611  0.7515315503822462  0.0956410881907344
  0.4611665808872851  0.7521337812808815  0.6122901692858488
  0.4550256062693777  0.0004476594662345  0.1019333844354620
  0.4551097605385278  0.0005455471019081  0.6027417375431168
  0.4550222339215965  0.2493116388739609  0.1019976103381206
  0.4550928336965095  0.2484149362784671  0.6028156755920600
  0.4561722799717468  0.4982788184428574  0.0958042264485311
  0.4611883802200751  0.4967818446121806  0.6126009409308535
  0.5794102811157745  0.1248452488537300  0.1568729143910766
  0.5800663462014697  0.1245856931011994  0.6577843890444312
  0.5799193918445510  0.3739756623864822  0.1572329902079307
  0.5816079071647567  0.3725264864127129  0.6592539751138453
  0.5799316841962093  0.6248352385253555  0.1581440508928535
  0.5823839776608271  0.6245412749190534  0.6595805471931601
  0.5799463177340144  0.8757012769924092  0.1571811580277259
  0.5816116443887844  0.8765968039789095  0.6592292278734314
  0.6709342464459223  0.9999289359336622  0.3433791899659167
  0.6716842024371480  0.0002001881118754  0.8443498689363095
  0.6709235216830043  0.2496532230241432  0.3433860511720740
  0.6716841339026590  0.2491912187267267  0.8443845314480984
  0.6716706164351572  0.4996365774117080  0.3427679303885627
  0.6719029849444723  0.4992778638695861  0.8447154890826181
  0.6716866599585442  0.7499236109870773  0.3427464591653797
  0.6719019159748079  0.7500924620230468  0.8446827509211376
  0.5450102767102029  0.0002050381224725  0.3975061109603247
  0.5447003653103912 -0.0001834061174571  0.8964017823639966
  0.5449824238714104  0.2488797203968739  0.3975140595381356
  0.5446849235994227  0.2498914269945610  0.8964190304440980
  0.5485476447758451  0.4961452703396160  0.3998046745590155
  0.5456611673994810  0.4999224976362138  0.8974938184063338
  0.5486047125811500  0.7529131178834750  0.3998205968527440
  0.5456692969353764  0.7497621348460644  0.8974332293801830
  0.7052794991624378  0.1247890315298092  0.1031920274239853
  0.7051423600603106  0.1247632234176617  0.6024241361168614
  0.7055424708271076  0.3745061797055611  0.1028589330549050
  0.7054896467450759  0.3746168899515222  0.6021577960456943
  0.7055467700920180  0.6247701791316185  0.1026447177868802
  0.7056755553465421  0.6247549502754066  0.6017847468520703
  0.7055520088554015  0.8750548788150740  0.1028220918759293
  0.7054923404848354  0.8749021182277803  0.6021356113036320
  0.8292183544798990 -0.0000140634780962  0.1572765141394489
  0.8292066439054624 -0.0000525568063946  0.6568484911851009
  0.8292221016403495  0.2496909006045478  0.1572765657940851
  0.8292003099389867  0.2497470952864483  0.6568465166335561
  0.8292183245934009  0.4997131463775433  0.1571291477253327
  0.8292928399919633  0.4997411475501000  0.6570556607363534
  0.8292162525802220  0.7499491480629389  0.1571250139463619
  0.8292957698334449  0.7499319018362749  0.6570569103230952
  0.9202959720426156  0.1249830011216736  0.3430168359488598
  0.9202758525330503  0.1249569159166336  0.8423806289738729
  0.9201794443914182  0.3747464946151353  0.3428319763534277
  0.9203478963825931  0.3748600119079246  0.8424599171563600
  0.9200464379523121  0.6249761036038659  0.3427376876911797
  0.9203859529214049  0.6249460501062351  0.8425289198007204
  0.9201793677521237  0.8752116391951131  0.3428303244543209
  0.9203458297143828  0.8750411812747737  0.8424642015736429
  0.7947889283275561  0.1248548973083945  0.3974134082614651
  0.7953506707262654  0.1247595125294789  0.8977080215786832
  0.7950038049855673  0.3745837837614106  0.3974953516165551
  0.7953310643403716  0.3745997179304880  0.8976284264223774
  0.7952066680778817  0.6248437360082602  0.3976382284412974
  0.7953549401740935  0.6247455605959525  0.8976302954758474
  0.7950074230601599  0.8751230425067208  0.3974978087571613
  0.7953223046536789  0.8749082031000924  0.8976173368017814
  0.9540783918048849  0.0001706683553851  0.1019507380620994
  0.9546061809337493  0.0000862454435863  0.6022037723143129
  0.9540792385901750  0.2498181833454226  0.1019537341717810
  0.9546053555474847  0.2499163135323983  0.6022042957223255
  0.9541026626394727  0.4998987240036828  0.1019573238110074
  0.9544735998840794  0.4999189626347697  0.6022017004660415
  0.9541034462910503  0.7500791874808538  0.1019569676124781
  0.9544757340733422  0.7500765375374524  0.6022005190122725
  0.2467713916080751  0.7491109989274317  0.1291551621374353
  0.2464865161120199  0.7504157505842430  0.6275578938683476
  0.2479530406590306  0.9993035023886873  0.1293138286735107
  0.2477436701908619 -0.0002609754836015  0.6274487233471304
  0.2479657456458934  0.2505125746875591  0.1293758864540497
  0.2477385160500168  0.2500447479268354  0.6275250845404907
  0.2468009277355664  0.5007455056481239  0.1292288578226556
  0.2464717926674555  0.4994016301019910  0.6276177136702623
  0.0011581151690485  0.6250120808992988  0.3717403976522757
  0.0016503782809041  0.6249826931758494  0.8713760279854531
  0.0013873434315237  0.8754978510624724  0.3717502947180409
  0.0015867613554099  0.8750395015099649  0.8712955781582641
  0.0015177873991572  0.1250223492867075  0.3719108917243775
  0.0013948217796690  0.1249909647947648  0.8707734863264098
  0.0013882650122689  0.3745357862030256  0.3717585909545759
  0.0015883087872699  0.3749368445959334  0.8712964267226334
  0.0850475257517762  0.7498882660955880  0.2816623646145962
  0.0863978986320404  0.7501757276236702  0.7819194661555938
  0.0858451672119020  0.0006514704335244  0.2813318836945219
  0.0866208935914934  0.0001480594604143  0.7822273607990958
  0.0858513990051279  0.2493478058897541  0.2813497643623408
  0.0866260068209012  0.2498245617074182  0.7822485955155455
  0.0850526602751960  0.5000782828916561  0.2816790746750493
  0.0864040268901488  0.4997751757056179  0.7819390484766673
  0.1621376852512431  0.6249641357440596  0.2175410444842475
  0.1627381104661172  0.6249586378716556  0.7179807897502329
  0.1615253356469423  0.8762756710575049  0.2167419268573826
  0.1629031319265181  0.8750155874168563  0.7181775698699878
  0.1628238471951577  0.1249684224020611  0.2174687776306644
  0.1631836317261272  0.1249594819015107  0.7179457418719978
  0.1615394642206398  0.3736638239188854  0.2167773232992823
  0.1629107747277685  0.3749068198833600  0.7182316560298125
  0.1695073725218735  0.6249454059595473  0.4438270359138292
  0.1677833607634944  0.6249373155771182  0.9436239433107939
  0.1664276011411912  0.8768090011705900  0.4451893086522563
  0.1686607244065614  0.8748472390742028  0.9453290371020555
  0.1681550300023471  0.1249342873709431  0.4450548158690562
  0.1688573060531674  0.1249315819512696  0.9457491377170327
  0.1664542758427070  0.3730711208989373  0.4452413508218080
  0.1686904847745010  0.3750245188326987  0.9454011186004142
  0.0813661268263074  0.7501567157146893  0.0541189058859302
  0.0818112596484290  0.7497850268463696  0.5543199288548462
  0.0812563730374499  0.0005405847170080  0.0534649488286271
  0.0817022747763200  0.0000065308517638  0.5544810095242049
  0.0812603795892998  0.2494637678271281  0.0534813231697455
  0.0817065940165614  0.2500279056895978  0.5544995211388609
  0.0813705150499221  0.4998424668524050  0.0541318671153194
  0.0818156247505350  0.5002346796888155  0.5543360734376944
  0.4969814068965289  0.6248891774174588  0.1312095459182546
  0.5010133074819783  0.6244882397454841  0.6319302847572209
  0.4978478126787292  0.8757338606101484  0.1280201424008456
  0.4999011354974766  0.8782599280838173  0.6300428825517286
  0.4976129562760870  0.1248662072438209  0.1285821542209710
  0.4980221290807638  0.1245272654580772  0.6279011422407885
  0.4978097917140086  0.3740536629018650  0.1281070484994170
  0.4999378011651754  0.3706775779406078  0.6302053528876248
  0.2473900724850239  0.7568254120023070  0.3671744685724461
  0.2520887723707132  0.7495968463804666  0.8721501902674823
  0.2514475789298889  0.0001817817585490  0.3709694769172497
  0.2518912870592376  0.9998941187486232  0.8713725875657121
  0.2514522114051481  0.2495645719431974  0.3710229321561013
  0.2518966101185622  0.2498744496904240  0.8714496332658748
  0.2474025189266709  0.4929513236866942  0.3672330873383070
  0.2520961571666849  0.5001747987573539  0.8722160094868773
  0.3349507009152707  0.6248682597563447  0.2880102439780159
  0.3355954766328217  0.6248712412358612  0.7792645099190728
  0.3376900687014042  0.8710744676234826  0.2843616591746778
  0.3365147878545051  0.8744485520772129  0.7825172865630187
  0.3367621513182193  0.1247576268911895  0.2818935359551891
  0.3366776486336966  0.1248181880759846  0.7811615730761787
  0.3376997750656145  0.3785020213193989  0.2844876748646641
  0.3365035617033744  0.3752242194799174  0.7826688526248416
  0.4140150777587012  0.7499386998718989  0.2145912827806948
  0.4121845790625754  0.7470968485154351  0.7130885230947204
  0.4127347103620403  0.9990277982139255  0.2173427518161614
  0.4126178945728090  0.9986721082878074  0.7167827666814501
  0.4127316154816452  0.2504839904821876  0.2174105157205260
  0.4126109851936112  0.2508270480047808  0.7168799304199364
  0.4140233852048085  0.4998370968315119  0.2148766849992303
  0.4121859172757255  0.5023804931996876  0.7133392588887827
  0.4229601945757701  0.7479132100530964  0.4498186151568569
  0.4172414246583293  0.7494943088558578  0.9414280825110851
  0.4179238612355299  0.9988462955997548  0.4456562780060938
  0.4176920141192781 -0.0002064826087972  0.9451059546383868
  0.4179224994920882  0.2502077205322860  0.4457115493917737
  0.4176805160113217  0.2499226801398818  0.9451811049460253
  0.4228963290310181  0.5008187543960627  0.4503870000708414
  0.4172280677798533  0.5003124980067305  0.9415792104968497
  0.3313751322177315  0.6248658798438725  0.0576843761103786
  0.3223193963033543  0.6248348281371401  0.5451112594097770
  0.3315874772409753  0.8743486506537373  0.0554028319677233
  0.3311318299877404  0.8730238318107092  0.5541293115316718
  0.3317014831820695  0.1248688224184167  0.0535935502007711
  0.3318412690288695  0.1248685375568386  0.5531997859078643
  0.3316221043487305  0.3754111831783264  0.0555674156134948
  0.3310969076556510  0.3766965861129420  0.5542709571068895
  0.7479851411210785  0.0000153460656039  0.1286585265892713
  0.7478665129752354  0.9999271398440300  0.6278559750184659
  0.7479870890049362  0.2495593026874872  0.1286613107569891
  0.7478639641369605  0.2495992870275763  0.6278651074043216
  0.7479407455465232  0.4996881554029178  0.1284788108393931
  0.7479572464441774  0.4996601587364232  0.6278442671125695
  0.7479401574456862  0.7498601516661701  0.1284668773903208
  0.7479582454134174  0.7498587939003700  0.6278337791795719
  0.5012564097799628  0.1245542566292238  0.3715073960513284
  0.5013172847410796  0.1248357860971467  0.8703748089262074
  0.5019335803217130  0.3753613646015643  0.3726196321761091
  0.5014778511977375  0.3756864015020315  0.8702419689925689
  0.5071415949291141  0.6245698511315507  0.3753153166250949
  0.5018835312217127  0.6248394456645497  0.8715197475813397
  0.5019595567193673  0.8737379214762558  0.3725321403835426
  0.5014991093233938  0.8740014955950903  0.8701729496684638
  0.5862564263176480  0.9996204440706705  0.2817115412602453
  0.5870433558347131  0.0001421647634439  0.7824650353184626
  0.5862365117177869  0.2499045714039534  0.2817389365928399
  0.5870463716759265  0.2491596642157218  0.7825144812362984
  0.5871584106840381  0.4990240485611300  0.2812274564064329
  0.5873501695272947  0.4991905053215730  0.7828865051395819
  0.5871806363057752  0.7504433864120371  0.2811996244295774
  0.5873579042936120  0.7501120524758983  0.7828441672796419
  0.6626637578037169  0.1248215788959566  0.2174555411089579
  0.6633558489743812  0.1246576708169434  0.7181777432063686
  0.6630811010066850  0.3744616365396243  0.2173352993480203
  0.6639251462471630  0.3741107418984003  0.7185801830302946
  0.6631425178833035  0.6247855908406857  0.2173358505804716
  0.6641281381598622  0.6246186140555933  0.7184397959903068
  0.6630894916849500  0.8751343479275036  0.2173012419668748
  0.6639235988053593  0.8751698849859757  0.7185409521544995
  0.6676389511121212  0.1247811019207047  0.4453212569961534
  0.6681139273886415  0.1247029254285800  0.9461538141588461
  0.6675062148465197  0.3751129818729190  0.4452616498528357
  0.6680332976148498  0.3744941967641511  0.9459945900990048
  0.6674974836111376  0.6247849977162018  0.4450125073513310
  0.6679715304985504  0.6247152703527366  0.9457922613759367
  0.6675079922727155  0.8744418344969596  0.4452388411422177
  0.6680315920238674  0.8749289909680631  0.9459614731727072
  0.5807306858967964 -0.0000338609261251  0.0536822083478512
  0.5819088954006660  0.0001864424477231  0.5541435145111209
  0.5807125091104359  0.2497694884722459  0.0537001008601753
  0.5818888827383283  0.2488533708703396  0.5541487179973255
  0.5802949487760385  0.5000955681757289  0.0550165676764924
  0.5824646642161998  0.4983037896823000  0.5568306370967921
  0.5802948475831110  0.7496101455683593  0.0549780244913447
  0.5824836835398809  0.7507139178189557  0.5568468078316465
  0.9971304663747563  0.1249914163527722  0.1275821117629370
  0.9976956730449282  0.1249990941390457  0.6280198230622779
  0.9971057731053112  0.3748576142324775  0.1276526969285035
  0.9976157207147883  0.3750336493043079  0.6279247944814110
  0.9970768660792686  0.6249860143688747  0.1276715666467963
  0.9975019809766522  0.6249939510871768  0.6278589055024382
  0.9971004393799151  0.8751219295038809  0.1276470019149182
  0.9976129668566418  0.8749617211092269  0.6279203048688170
  0.7516749852264104  0.9997999346345186  0.3716849280737888
  0.7522489849752886  0.9998437056630474  0.8720828267335042
  0.7516728070776729  0.2498894597977812  0.3716971394679048
  0.7522525567485739  0.2496555950891207  0.8720941655946181
  0.7520459857016594  0.4998792845226108  0.3717329792554940
  0.7522982330898618  0.4996930549753305  0.8720901332941429
  0.7520543372493237  0.7498082524966343  0.3717240487970628
  0.7522969333405837  0.7497880872937026  0.8720782224393892
  0.8364180331456262  0.1249111072619942  0.2821251612465203
  0.8365247220593015  0.1248640591226407  0.7816472270320458
  0.8364262541350554  0.3748820552753390  0.2819893445950240
  0.8365215680785536  0.3748758982116646  0.7816695517409467
  0.8364589666188447  0.6249067044451375  0.2819259879295940
  0.8365431852671302  0.6248578590738604  0.7817119679104936
  0.8364270561414803  0.8749355580558549  0.2819880653295300
  0.8365202748320817  0.8748461429787419  0.7816747498382038
  0.9128387668053074 -0.0000239063410002  0.2179624070916139
  0.9129546803543080  0.9998610013773639  0.7175495112039280
  0.9128406939122926  0.2499092921800778  0.2179660247737337
  0.9129546223919339  0.2499931768207561  0.7175511614714395
  0.9128514572221016  0.4998643263727964  0.2178937596018158
  0.9129845865626987  0.4999329009895659  0.7176979023536315
  0.9128500255853380  0.7500176017128330  0.2178916105743389
  0.9129852344463685  0.7499162316330720  0.7176966991666626
  0.9177406221984140  0.0000431169210533  0.4453621742950385
  0.9176581635644090 -0.0000399520597290  0.9448244436764900
  0.9177389378218119  0.2499457311421379  0.4453643182716899
  0.9176571219862946  0.2499731010689676  0.9448277897437922
  0.9178055581947409  0.4998940079907120  0.4452304179801324
  0.9177373200377948  0.4999469828815069  0.9448479834248706
  0.9178071389487075  0.7500891361167995  0.4452290216310908
  0.9177394764609744  0.7499772010066734  0.9448474986420702
  0.8317770980502811  0.1248236454509463  0.0547689980238275
  0.8314792039988722  0.1248505205998710  0.5543242532841685
  0.8316322410845463  0.3747330084565736  0.0547625764298149
  0.8314921927465657  0.3748149178261491  0.5544524904880552
  0.8316201603682859  0.6248187220624501  0.0547749063918743
  0.8315716987634789  0.6248429091878908  0.5545939302944748
  0.8316138105629109  0.8749150593678821  0.0547556034059941
  0.8314919736382008  0.8748818549884865  0.5544543913069881