Co   Ga   O 
   1.00000000000000     
  24.9361379999999997   0.0000000000000000   0.0000000000000000
   0.0000000000000000  12.3494290000000007   0.0000000000000000
  -2.7833760000000001   0.0000000000000000  11.4316289999999992
Co   Ga   O 
1  128  192  
Direct
  0.2574852865339558  0.6250000000000000  0.4301584795431276  
  0.0779337804502491  0.6250000000000000  0.1560799356989322  
  0.0778326928954352  0.6250000000000000  0.6586957952561843  
  0.0772301494276683  0.8769839893554450  0.1542432103251377  
  0.0787997791758793  0.8750521352810671  0.6571502614410523  
  0.0776909728994624  0.1250000000000000  0.1564635879339054  
  0.0786169086505815  0.1250000000000000  0.6568815717372819  
  0.0772301494276683  0.3730160106445554  0.1542432103251377  
  0.0787997791758793  0.3749478647189330  0.6571502614410523  
  0.1667508352237745  0.7576778797671659  0.3377161975717304  
  0.1699056181652998  0.7502988063783631  0.8455388010029938  
  0.1695273547620662  0.0017291554268155  0.3422906713001296  
  0.1701125986393129  0.0003762561052775  0.8427737782628593  
  0.1695273547620662  0.2482708445731845  0.3422906713001296  
  0.1701125986393129  0.2496227438947250  0.8427737782628593  
  0.1667508352237745  0.4923221202328347  0.3377161975717304  
  0.1699056181652998  0.4997011936216372  0.8455388010029938  
  0.0436860997302070  0.7502325355478451  0.3990690980281501  
  0.0439963072823417  0.7501531167068324  0.8976596472094321  
  0.0444387686563073  0.0002280853872864  0.3978053658175889  
  0.0439645615136439  0.0003868965348886  0.8963052432637330  
  0.0444387686563073  0.2497719146127135  0.3978053658175889  
  0.0439645615136439  0.2496131034651114  0.8963052432637330  
  0.0436860997302070  0.4997674644521550  0.3990690980281501  
  0.0439963072823417  0.4998468832931673  0.8976596472094321  
  0.2046126479075176  0.6250000000000000  0.1060744982442785  
  0.2039930469534636  0.6250000000000000  0.6108048023577378  
  0.2046378593060660  0.8754526939021463  0.1035886074970518  
  0.2036423151366445  0.8763708724831285  0.6018649002688686  
  0.2048492248777793  0.1250000000000000  0.1033756958481844  
  0.2046488552513676  0.1250000000000000  0.6027319719589518  
  0.2046378593060660  0.3745473060978539  0.1035886074970518  
  0.2036423151366445  0.3736291275168717  0.6018649002688686  
  0.3278334389098869  0.7513570842586281  0.1565967853906784  
  0.3283492520356673  0.7553413856110797  0.6662098674240472  
  0.3288890503773403  0.0010340655148372  0.1553952894287718  
  0.3288303875781893  0.0009664641217662  0.6555790237444323  
  0.3288890503773403  0.2489659344851628  0.1553952894287718  
  0.3288303875781893  0.2490335358782339  0.6555790237444323  
  0.3278334389098869  0.4986429157413718  0.1565967853906784  
  0.3283492520356673  0.4946586143889200  0.6662098674240472  
  0.4321278511293282  0.6250000000000000  0.3027436188132503  
  0.4214017343569742  0.6250000000000000  0.8406414182920506  
  0.4207241810474938  0.8782021102702502  0.3396909048289269  
  0.4215569979916242  0.8769860500464517  0.8424140243443559  
  0.4204688247024606  0.1250000000000000  0.3429060345622362  
  0.4209356324878711  0.1250000000000000  0.8427768101761098  
  0.4207241810474938  0.3717978897297500  0.3396909048289269  
  0.4215569979916242  0.3730139499535481  0.8424140243443559  
  0.3652226177087580  0.6250000000000000  0.4409892235073546  
  0.2945053127030227  0.6250000000000000  0.8999497932329917  
  0.2940671463364439  0.8761354962851861  0.3972435912215100  
  0.2939936332386645  0.8753163734986267  0.8984784067696091  
  0.2943907605726461  0.1250000000000000  0.3964594725787736  
  0.2945905440360211  0.1250000000000000  0.8958428846190231  
  0.2940671463364439  0.3738645037148142  0.3972435912215100  
  0.2939936332386645  0.3746836265013734  0.8984784067696091  
  0.4582092904734187  0.7533011978593217  0.0949726978932082  
  0.4589337252556200  0.7509772211529752  0.6091989234583035  
  0.4555433559513938  0.0010872664454512  0.1021908871437660  
  0.4551953491506573  0.0005310887300305  0.6024795357520540  
  0.4555433559513938  0.2489127335545487  0.1021908871437660  
  0.4551953491506573  0.2494689112699695  0.6024795357520540  
  0.4582092904734187  0.4966988021406781  0.0949726978932082  
  0.4589337252556200  0.4990227788470249  0.6091989234583035  
  0.5799866415638227  0.1250000000000000  0.1579867294993473  
  0.5798923270354700  0.1250000000000000  0.6577204804812815  
  0.5807795902491865  0.3736675660203809  0.1579229977136243  
  0.5809417477597105  0.3736638043734217  0.6592748126433270  
  0.5805352858682012  0.6250000000000000  0.1588894132200509  
  0.5816481354325337  0.6250000000000000  0.6598456648969201  
  0.5807795902491865  0.8763324339796192  0.1579229977136243  
  0.5809417477597105  0.8763361956265781  0.6592748126433270  
  0.6711868948083458  0.0001930912979440  0.3447127136483710  
  0.6715707533942472  0.0002957128297956  0.8442610984219524  
  0.6711868948083458  0.2498069087020560  0.3447127136483710  
  0.6715707533942472  0.2497042871702045  0.8442610984219524  
  0.6719200057466793  0.4998588478237057  0.3438233170931930  
  0.6718440895306338  0.4997137030687294  0.8447431441300767  
  0.6719200057466793  0.7501411521762943  0.3438233170931930  
  0.6718440895306338  0.7502862969312708  0.8447431441300767  
  0.5446289466506243  0.0001157685706519  0.3977600437851429  
  0.5454939393946429  0.0003573150354931  0.8977829270658563  
  0.5446289466506243  0.2498842314293480  0.3977600437851429  
  0.5454939393946429  0.2496426849645069  0.8977829270658563  
  0.5485816611336169  0.4971113542663457  0.4002685730239415  
  0.5459901001991828  0.4999318487418309  0.8978570827888351  
  0.5485816611336169  0.7528886457336547  0.4002685730239415  
  0.5459901001991828  0.7500681512581692  0.8978570827888351  
  0.7051074471474018  0.1250000000000000  0.1033347303300662  
  0.7054435810458313  0.1250000000000000  0.6034359072056951  
  0.7056442404541429  0.3747359393775163  0.1031440241531464  
  0.7055400945999916  0.3749395655919076  0.6031229578420667  
  0.7056706264351238  0.6250000000000000  0.1030143182836956  
  0.7055609284729265  0.6250000000000000  0.6027241814070969  
  0.7056442404541429  0.8752640606224836  0.1031440241531464  
  0.7055400945999916  0.8750604344080926  0.6031229578420667  
  0.8292338514725840  0.0001713825232624  0.1579436888001133  
  0.8293043118974581  0.0000238466802684  0.6574190490220100  
  0.8292338514725840  0.2498286174767376  0.1579436888001133  
  0.8293043118974581  0.2499761533197317  0.6574190490220100  
  0.8293353059346430  0.4998647244584419  0.1578453653895352  
  0.8292877077257911  0.4999397342113753  0.6577612548034957  
  0.8293353059346430  0.7501352755415580  0.1578453653895352  
  0.8292877077257911  0.7500602657886246  0.6577612548034957  
  0.9204260806465654  0.1250000000000000  0.3437301749008759  
  0.9201839275799054  0.1250000000000000  0.8428682586062581  
  0.9203430088490836  0.3747981402272196  0.3434169998261273  
  0.9202925827791062  0.3749033732759093  0.8430625552737123  
  0.9202318306957484  0.6250000000000000  0.3434191372461377  
  0.9203561602963252  0.6250000000000000  0.8431290816978526  
  0.9203430088490836  0.8752018597727800  0.3434169998261273  
  0.9202925827791062  0.8750966267240904  0.8430625552737123  
  0.7949365835091672  0.1250000000000000  0.3980819800255735  
  0.7953410280747606  0.1250000000000000  0.8983306425938078  
  0.7951759926281905  0.3747776636303062  0.3982165814341683  
  0.7953095189599827  0.3748426682457556  0.8983179510107953  
  0.7953940246876284  0.6250000000000000  0.3984153954340243  
  0.7953983203291567  0.6250000000000000  0.8984104369895139  
  0.7951759926281905  0.8752223363696937  0.3982165814341683  
  0.7953095189599827  0.8751573317542444  0.8983179510107953  
  0.9539326365329946  0.0001915341581761  0.1024225338862220  
  0.9548261140698064  0.9999033411312500  0.6028930165312153  
  0.9539326365329946  0.2498084658418240  0.1024225338862220  
  0.9548261140698064  0.2500966588687496  0.6028930165312153  
  0.9542571913840722  0.5000739305020806  0.1026852759363438  
  0.9544539205018884  0.4997973345233109  0.6028588585473932  
  0.9542571913840722  0.7499260694979192  0.1026852759363438  
  0.9544539205018884  0.7502026654766889  0.6028588585473932  
  0.2477913209880563  0.7501345709300501  0.1280639888233854  
  0.2474499950731714  0.7506634369274493  0.6281003006173388  
  0.2483503214887153  0.9998659603805190  0.1298189669689732  
  0.2480072834447066  0.9999757304457076  0.6278206299039057  
  0.2483503214887153  0.2501340396194813  0.1298189669689732  
  0.2480072834447066  0.2500242695542926  0.6278206299039057  
  0.2477913209880563  0.4998654290699497  0.1280639888233854  
  0.2474499950731714  0.4993365630725505  0.6281003006173388  
  0.0014166901483558  0.6250000000000000  0.3724660715495936  
  0.0015621465627693  0.6250000000000000  0.8718042235748128  
  0.0015963930628738  0.8753053446183057  0.3724864082371794  
  0.0014944715474795  0.8751668543957456  0.8717342069737540  
  0.0015842486435849  0.1250000000000000  0.3725595917609682  
  0.0011656870075240  0.1250000000000000  0.8705356644900387  
  0.0015963930628738  0.3746946553816945  0.3724864082371794  
  0.0014944715474795  0.3748331456042540  0.8717342069737540  
  0.0857358001191253  0.7496230765119315  0.2833921845035975  
  0.0865690703635296  0.7499162079871335  0.7834730874607292  
  0.0857781281234942  0.0008411197520234  0.2814343666844710  
  0.0867225576442309  0.0001077095115660  0.7826206987607094  
  0.0857781281234942  0.2491588802479766  0.2814343666844710  
  0.0867225576442309  0.2498922904884339  0.7826206987607094  
  0.0857358001191253  0.5003769234880685  0.2833921845035975  
  0.0865690703635296  0.5000837920128665  0.7834730874607292  
  0.1617861330017903  0.6250000000000000  0.2182925730064157  
  0.1624967913547694  0.6250000000000000  0.7218112685980989  
  0.1611046211550316  0.8781821867760018  0.2151611934394049  
  0.1630779956001087  0.8747647118700022  0.7187639299787214  
  0.1627550551784813  0.1250000000000000  0.2177228180005190  
  0.1632403621091586  0.1250000000000000  0.7183400287017594  
  0.1611046211550316  0.3718178132239981  0.2151611934394049  
  0.1630779956001087  0.3752352881299979  0.7187639299787214  
  0.1757813394648891  0.6250000000000000  0.4469451848770623  
  0.1688515983648660  0.6250000000000000  0.9480487859131104  
  0.1655818374563593  0.8783488965709366  0.4460323151840578  
  0.1687805341010276  0.8755970337493043  0.9464130378190132  
  0.1678336466939312  0.1250000000000000  0.4459422915724442  
  0.1689077870549754  0.1250000000000000  0.9462209065136188  
  0.1655818374563593  0.3716511034290635  0.4460323151840578  
  0.1687805341010276  0.3744029662506959  0.9464130378190132  
  0.0810069456063739  0.7504899873740108  0.0549021867922287  
  0.0823648138287211  0.7489123730938121  0.5553737553527320  
  0.0808107399258268  0.0011150182521072  0.0532742179437268  
  0.0816262236044940  0.0000308847447672  0.5549809953532471  
  0.0808107399258268  0.2488849817478929  0.0532742179437268  
  0.0816262236044940  0.2499691152552329  0.5549809953532471  
  0.0810069456063739  0.4995100126259891  0.0549021867922287  
  0.0823648138287211  0.5010876269061879  0.5553737553527320  
  0.4975577294508982  0.6250000000000000  0.1331363303013406  
  0.5000695381404244  0.6250000000000000  0.6309060166459651  
  0.4993070438010214  0.8776970185191079  0.1285264049161005  
  0.4987612958458436  0.8764015074854544  0.6272594729364300  
  0.4984269755609581  0.1250000000000000  0.1291454887271115  
  0.4978988151013898  0.1250000000000000  0.6277417489612698  
  0.4993070438010214  0.3723029814808924  0.1285264049161005  
  0.4987612958458436  0.3735984925145455  0.6272594729364300  
  0.2468027864449319  0.7611695555255442  0.3636231217261583  
  0.2519643197655018  0.7497383161711735  0.8715034221726915  
  0.2516184980305599  0.0010479112602751  0.3715167699692341  
  0.2519028402847187  0.0002108123163532  0.8714003168656435  
  0.2516184980305599  0.2489520887397250  0.3715167699692341  
  0.2519028402847187  0.2497891876836468  0.8714003168656435  
  0.2468027864449319  0.4888304444744560  0.3636231217261583  
  0.2519643197655018  0.5002616838288265  0.8715034221726915  
  0.3438959943262667  0.6250000000000000  0.2788915195214061  
  0.3363218793965467  0.6250000000000000  0.7828269660581763  
  0.3382004808865601  0.8714633171608670  0.2841761388169698  
  0.3370101564137452  0.8756330562922235  0.7841853375018236  
  0.3370888768090014  0.1250000000000000  0.2817916552230075  
  0.3370136976987904  0.1250000000000000  0.7811894338363919  
  0.3382004808865601  0.3785366828391335  0.2841761388169698  
  0.3370101564137452  0.3743669437077766  0.7841853375018236  
  0.4164762439488442  0.7550713500377533  0.2131130536785656  
  0.4129666999963881  0.7485820510034110  0.7161514722352289  
  0.4131029680569537  0.9999614560003550  0.2170119743796221  
  0.4130632350844448  0.9991439717143124  0.7171582547837226  
  0.4131029680569537  0.2500385439996451  0.2170119743796221  
  0.4130632350844448  0.2508560282856878  0.7171582547837226  
  0.4164762439488442  0.4949286499622471  0.2131130536785656  
  0.4129666999963881  0.5014179489965890  0.7161514722352289  
  0.4168757403374471  0.7414162671883853  0.4504439664772820  
  0.4184171538610717  0.7503216591711189  0.9422632362691844  
  0.4179855743058047  0.9988863307056604  0.4452662507573371  
  0.4184555698639539  0.0002154977130342  0.9454388040763132  
  0.4179855743058047  0.2511136692943399  0.4452662507573371  
  0.4184555698639539  0.2497845022869659  0.9454388040763132  
  0.4168757403374471  0.5085837328116147  0.4504439664772820  
  0.4184171538610717  0.4996783408288814  0.9422632362691844  
  0.3322276985080233  0.6250000000000000  0.0567349179832516  
  0.3278867838096033  0.6250000000000000  0.5572877571206858  
  0.3318406047098373  0.8749373064055544  0.0552229429241728  
  0.3314277744480473  0.8732007345477103  0.5549472138603628  
  0.3319500109512146  0.1250000000000000  0.0531718019443009  
  0.3324063091992718  0.1250000000000000  0.5532857634233939  
  0.3318406047098373  0.3750626935944455  0.0552229429241728  
  0.3314277744480473  0.3767992654522898  0.5549472138603628  
  0.7479715569355185  0.0003375802650729  0.1289859324464812  
  0.7480072299687095  0.0000049429517840  0.6287409324751780  
  0.7479715569355185  0.2496624197349271  0.1289859324464812  
  0.7480072299687095  0.2499950570482160  0.6287409324751780  
  0.7480566634477807  0.4999165349471101  0.1289756867884864  
  0.7479835383530550  0.5000299973142345  0.6286962077738552  
  0.7480566634477807  0.7500834650528898  0.1289756867884864  
  0.7479835383530550  0.7499700026857657  0.6286962077738552  
  0.5012845850939158  0.1250000000000000  0.3716747977946535  
  0.5019890728821019  0.1250000000000000  0.8712830642224764  
  0.5013949931947984  0.3769370133677208  0.3745556940356417  
  0.5023743781933131  0.3752016094609931  0.8708898777468355  
  0.5064361419238705  0.6250000000000000  0.3769914240155879  
  0.5024427079427917  0.6250000000000000  0.8725855828487680  
  0.5013949931947984  0.8730629866322794  0.3745556940356417  
  0.5023743781933131  0.8747983905390071  0.8708898777468355  
  0.5865091448198534  0.9996722053634948  0.2830557527377611  
  0.5869146624607282  0.0001195214750645  0.7822397615597544  
  0.5865091448198534  0.2503277946365050  0.2830557527377611  
  0.5869146624607282  0.2498804785249355  0.7822397615597544  
  0.5873501427762546  0.4993591694111368  0.2821126450547085  
  0.5872510976596987  0.4996596095499339  0.7827649754612185  
  0.5873501427762546  0.7506408305888634  0.2821126450547085  
  0.5872510976596987  0.7503403904500660  0.7827649754612185  
  0.6630474864562096  0.1250000000000000  0.2188165923584175  
  0.6632134806949800  0.1250000000000000  0.7182626120341030  
  0.6634719356026395  0.3748293931891719  0.2183060459988118  
  0.6637280852386976  0.3745718423163838  0.7188834569717550  
  0.6634228275546706  0.6250000000000000  0.2181008757545404  
  0.6639202039605884  0.6250000000000000  0.7190056183260393  
  0.6634719356026395  0.8751706068108281  0.2183060459988118  
  0.6637280852386976  0.8754281576836161  0.7188834569717550  
  0.6679126838403732  0.1250000000000000  0.4464842202900943  
  0.6680104158437223  0.1250000000000000  0.9460977910815128  
  0.6677364963604577  0.3753759384675683  0.4461513252851330  
  0.6679795085881590  0.3749372241745328  0.9463021981504770  
  0.6676527337642542  0.6250000000000000  0.4457667716837089  
  0.6679026320764235  0.6250000000000000  0.9462447273109008  
  0.6677364963604577  0.8746240615324317  0.4461513252851330  
  0.6679795085881590  0.8750627758254669  0.9463021981504770  
  0.5820847090077443  0.0005697617900161  0.0546493464266152  
  0.5813479176095768  0.0001444262256282  0.5544526121167447  
  0.5820847090077443  0.2494302382099838  0.0546493464266152  
  0.5813479176095768  0.2498555737743718  0.5544526121167447  
  0.5805181058154979  0.5002301023185455  0.0556462224708724  
  0.5826004114664067  0.4992861245779239  0.5570780115072750  
  0.5805181058154979  0.7497698976814545  0.0556462224708724  
  0.5826004114664067  0.7507138754220759  0.5570780115072750  
  0.9968994446292208  0.1250000000000000  0.1280606477689664  
  0.9977665884383092  0.1250000000000000  0.6286848269246793  
  0.9970369128836476  0.3748043315417807  0.1284687808277956  
  0.9979171676117636  0.3752806780814258  0.6284612843381322  
  0.9973680461825030  0.6250000000000000  0.1288537577559511  
  0.9974034555686018  0.6250000000000000  0.6285710851604972  
  0.9970369128836476  0.8751956684582196  0.1284687808277956  
  0.9979171676117636  0.8747193219185744  0.6284612843381322  
  0.7518844781643386  0.9999101419605622  0.3725249263401234  
  0.7522122526637349  0.0000782570211144  0.8725951462072118  
  0.7518844781643386  0.2500898580394378  0.3725249263401234  
  0.7522122526637349  0.2499217429788856  0.8725951462072118  
  0.7522406628694118  0.5000840291132237  0.3725324788054167  
  0.7523110488510056  0.5000068257650562  0.8727726850140077  
  0.7522406628694118  0.7499159708867763  0.3725324788054167  
  0.7523110488510056  0.7499931742349435  0.8727726850140077  
  0.8365377753043671  0.1250000000000000  0.2827577886997938  
  0.8365495721651837  0.1250000000000000  0.7822587479939512  
  0.8365243445225624  0.3749371649948531  0.2826034633462807  
  0.8365362014282037  0.3751030638102361  0.7823865987795057  
  0.8366018768135838  0.6250000000000000  0.2826208597901962  
  0.8366178459876209  0.6250000000000000  0.7824888577634235  
  0.8365243445225624  0.8750628350051467  0.2826034633462807  
  0.8365362014282037  0.8748969361897639  0.7823865987795057  
  0.9128955945527588  0.9999454024408230  0.2187023282121233  
  0.9130117638287856  0.9997771382965480  0.7180324248815924  
  0.9128955945527588  0.2500545975591774  0.2187023282121233  
  0.9130117638287856  0.2502228617034525  0.7180324248815924  
  0.9130023480406000  0.4999382890648346  0.2186295205438242  
  0.9130184361194787  0.4999506073029378  0.7183668186329971  
  0.9130023480406000  0.7500617109351654  0.2186295205438242  
  0.9130184361194787  0.7500493926970621  0.7183668186329971  
  0.9179056504458540  0.9999283301703660  0.4460381759787043  
  0.9175540198157804  0.9999796372023509  0.9453657559304728  
  0.9179056504458540  0.2500716698296343  0.4460381759787043  
  0.9175540198157804  0.2500203627976486  0.9453657559304728  
  0.9178718467167808  0.4999130348750597  0.4458437746636786  
  0.9178630677589468  0.5000208503433011  0.9456256091620272  
  0.9178718467167808  0.7500869651249404  0.4458437746636786  
  0.9178630677589468  0.7499791496566989  0.9456256091620272  
  0.8318481213244409  0.1250000000000000  0.0553854337324553  
  0.8315421432119454  0.1250000000000000  0.5549847378855494  
  0.8316989069259862  0.3748780653846357  0.0554194603178606  
  0.8315960594711594  0.3751001663251660  0.5551610103868158  
  0.8317718678232079  0.6250000000000000  0.0554946711184727  
  0.8317015902203568  0.6250000000000000  0.5553923828434086  
  0.8316989069259862  0.8751219346153641  0.0554194603178606  
  0.8315960594711594  0.8748998336748339  0.5551610103868158  
