Co   Ga   O 
   1.00000000000000     
  24.9361379999999997   0.0000000000000000   0.0000000000000000
   0.0000000000000000  12.3494290000000007   0.0000000000000000
  -2.7833760000000001   0.0000000000000000  11.4316289999999992
Co   Ga   O 
1  128  192  
Direct
  0.2500000000000000  0.6250000000000000  0.5000000000000000  
  0.0784691124712592  0.6250000000000000  0.1571200698753353  
  0.0693587159000240  0.6250000000000000  0.6870300070622467  
  0.0778575340539645  0.8766311507353580  0.1569850710443612  
  0.0803875446142200  0.8768373947720870  0.6598211953073131  
  0.0788259326935987  0.1250000000000000  0.1575072811888024  
  0.0796232189082211  0.1250000000000000  0.6567740214197468  
  0.0778575340539645  0.3733688492646419  0.1569850710443612  
  0.0803875446142200  0.3731626052279133  0.6598211953073131  
  0.1711259976200469  0.7558239995964219  0.3323153945706412  
  0.1718738372127100  0.7507501500446873  0.8447941041539759  
  0.1707104148057673  0.0006892145556462  0.3449724325723943  
  0.1711038956868396  0.0007560780147023  0.8430304085653276  
  0.1707104148057673  0.2493107854443539  0.3449724325723943  
  0.1711038956868396  0.2492439219852977  0.8430304085653276  
  0.1711259976200469  0.4941760004035785  0.3323153945706412  
  0.1718738372127100  0.4992498499553126  0.8447941041539759  
  0.0439054262488055  0.7496964321935251  0.3945666201243146  
  0.0419434908025012  0.7525546036908347  0.9021306851250244  
  0.0448860044666742  0.9999799418925230  0.3976838749916309  
  0.0447256032869547  0.0008413998621959  0.8974686090469484  
  0.0448860044666742  0.2500200581074771  0.3976838749916309  
  0.0447256032869547  0.2491586001378041  0.8974686090469484  
  0.0439054262488055  0.5003035678064747  0.3945666201243146  
  0.0419434908025012  0.4974453963091652  0.9021306851250244  
  0.2059508096793798  0.6250000000000000  0.1046714145507764  
  0.1452404039641121  0.6250000000000000  0.5684057853513819  
  0.2050065691263643  0.8760134967344592  0.1013862613533541  
  0.2074019077904357  0.8690695777476908  0.6010282899811934  
  0.2046547158023910  0.1250000000000000  0.1034216825870387  
  0.2059581903681135  0.1250000000000000  0.6036783604881711  
  0.2050065691263643  0.3739865032655411  0.1013862613533541  
  0.2074019077904357  0.3809304222523089  0.6010282899811934  
  0.3281261627872900  0.7507501500446873  0.1552068958460217  
  0.3288740023799532  0.7558239995964219  0.6676856054293563  
  0.3288961043131604  0.0007560780147023  0.1569705914346698  
  0.3292895851942327  0.0006892145556462  0.6550285674276101  
  0.3288961043131604  0.2492439219852977  0.1569705914346698  
  0.3292895851942327  0.2493107854443539  0.6550285674276101  
  0.3281261627872900  0.4992498499553126  0.1552068958460217  
  0.3288740023799532  0.4941760004035785  0.6676856054293563  
  0.4306412840999760  0.6250000000000000  0.3129709929377578  
  0.4215308875287410  0.6250000000000000  0.8428809301246620  
  0.4196124553857802  0.8768373947720870  0.3401798046926842  
  0.4221424659460357  0.8766311507353580  0.8430159289556364  
  0.4203767810917790  0.1250000000000000  0.3432269785802577  
  0.4211740673064013  0.1250000000000000  0.8424937188111951  
  0.4196124553857802  0.3731626052279133  0.3401798046926842  
  0.4221424659460357  0.3733688492646419  0.8430159289556364  
  0.3547595960358881  0.6250000000000000  0.4315942146486182  
  0.2940491903206202  0.6250000000000000  0.8953275854492186  
  0.2925980922095642  0.8690695777476908  0.3989717100188067  
  0.2949934308736356  0.8760134967344592  0.8986127386466413  
  0.2940418096318865  0.1250000000000000  0.3963216395118287  
  0.2953452841976090  0.1250000000000000  0.8965773174129636  
  0.2925980922095642  0.3809304222523089  0.3989717100188067  
  0.2949934308736356  0.3739865032655411  0.8986127386466413  
  0.4580565091974989  0.7525546036908347  0.0978683148749710  
  0.4560945737511948  0.7496964321935251  0.6054333798756851  
  0.4552743967130452  0.0008413998621959  0.1025303909530468  
  0.4551139955333258  0.9999799418925230  0.6023161250083687  
  0.4552743967130452  0.2491586001378041  0.1025303909530468  
  0.4551139955333258  0.2500200581074771  0.6023161250083687  
  0.4580565091974989  0.4974453963091652  0.0978683148749710  
  0.4560945737511948  0.5003035678064747  0.6054333798756851  
  0.5795423763759524  0.1250000000000000  0.1580668155770926  
  0.5794120701915262  0.1250000000000000  0.6566350334606750  
  0.5804494879787899  0.3737922932677049  0.1573404347592104  
  0.5799310252214533  0.3743504735314613  0.6581241858981914  
  0.5803360998421051  0.6250000000000000  0.1577330041480976  
  0.5804059379728111  0.6250000000000000  0.6585127427051645  
  0.5804494879787899  0.8762077067322951  0.1573404347592104  
  0.5799310252214533  0.8756495264685388  0.6581241858981914  
  0.6708068645343530  0.0002415621560058  0.3439551910348558  
  0.6710845203221059  0.0002895393849306  0.8429761368791089  
  0.6708068645343530  0.2497584378439942  0.3439551910348558  
  0.6710845203221059  0.2497104606150693  0.8429761368791089  
  0.6715846089965585  0.4997767295442428  0.3429623641171257  
  0.6712050117095244  0.4997393355320470  0.8433317841503223  
  0.6715846089965585  0.7502232704557572  0.3429623641171257  
  0.6712050117095244  0.7502606644679529  0.8433317841503223  
  0.5439783130136491  0.9995943782111092  0.3971463815391618  
  0.5457313969044633  0.0005816863679640  0.8979757557012226  
  0.5439783130136491  0.2504056217888910  0.3971463815391618  
  0.5457313969044633  0.2494183136320360  0.8979757557012226  
  0.5481794694508327  0.4972480164748047  0.3994880666401615  
  0.5456713580080852  0.4998829402879877  0.8975054050453144  
  0.5481794694508327  0.7527519835251949  0.3994880666401615  
  0.5456713580080852  0.7501170597120124  0.8975054050453144  
  0.7046130008165408  0.1250000000000000  0.1025518518590710  
  0.7053579193103854  0.1250000000000000  0.6029221577030512  
  0.7052368313228132  0.3745770806847947  0.1023489666874110  
  0.7051094942505789  0.3747120063100481  0.6026098965397335  
  0.7052663645276185  0.6250000000000000  0.1021893285825490  
  0.7048751021763816  0.6250000000000000  0.6021347598605893  
  0.7052368313228132  0.8754229193152057  0.1023489666874110  
  0.7051094942505789  0.8752879936899520  0.6026098965397335  
  0.8289154796778941  0.0002895393849306  0.1570238631208912  
  0.8291931354656470  0.0002415621560058  0.6560448089651441  
  0.8289154796778941  0.2497104606150693  0.1570238631208912  
  0.8291931354656470  0.2497584378439942  0.6560448089651441  
  0.8287949882904756  0.4997393355320470  0.1566682158496777  
  0.8284153910034415  0.4997767295442428  0.6570376358828742  
  0.8287949882904756  0.7502606644679529  0.1566682158496777  
  0.8284153910034415  0.7502232704557572  0.6570376358828742  
  0.9205879298084738  0.1250000000000000  0.3433649665393249  
  0.9204576236240476  0.1250000000000000  0.8419331844229074  
  0.9200689747785468  0.3743504735314613  0.3418758141018084  
  0.9195505120212100  0.3737922932677049  0.8426595652407894  
  0.9195940620271889  0.6250000000000000  0.3414872572948356  
  0.9196639001578948  0.6250000000000000  0.8422669958519029  
  0.9200689747785468  0.8756495264685388  0.3418758141018084  
  0.9195505120212100  0.8762077067322951  0.8426595652407894  
  0.7946420806896146  0.1250000000000000  0.3970778422969484  
  0.7953869991834592  0.1250000000000000  0.8974481481409290  
  0.7948905057494211  0.3747120063100481  0.3973901034602667  
  0.7947631686771868  0.3745770806847947  0.8976510333125889  
  0.7951248978236184  0.6250000000000000  0.3978652401394107  
  0.7947336354723815  0.6250000000000000  0.8978106714174510  
  0.7948905057494211  0.8752879936899520  0.3973901034602667  
  0.7947631686771868  0.8754229193152057  0.8976510333125889  
  0.9542686030955368  0.0005816863679640  0.1020242442987774  
  0.9560216869863508  0.9995943782111092  0.6028536184608378  
  0.9542686030955368  0.2494183136320360  0.1020242442987774  
  0.9560216869863508  0.2504056217888910  0.6028536184608378  
  0.9543286419919148  0.4998829402879877  0.1024945949546857  
  0.9518205305491672  0.4972480164748047  0.6005119333598389  
  0.9543286419919148  0.7501170597120124  0.1024945949546857  
  0.9518205305491672  0.7527519835251949  0.6005119333598389  
  0.2477017963223734  0.7511524567142239  0.1296348215104237  
  0.2493460748162781  0.7440360093967239  0.6218338218806410  
  0.2480146810392592  0.0003940848239437  0.1282234261391739  
  0.2480876035705438  0.9984554736122478  0.6284377695342269  
  0.2480146810392592  0.2496059151760563  0.1282234261391739  
  0.2480876035705438  0.2515445263877522  0.6284377695342269  
  0.2477017963223734  0.4988475432857759  0.1296348215104237  
  0.2493460748162781  0.5059639906032761  0.6218338218806410  
  0.0013064481425848  0.6250000000000000  0.3724727797584771  
  0.0015709396172800  0.6250000000000000  0.8679482883931062  
  0.0023109499980073  0.8742934035777300  0.3750506906030571  
  0.0007177793566588  0.8775368385196308  0.8706950524725399  
  0.0022137058353310  0.1250000000000000  0.3727536750680878  
  0.0017742242589130  0.1250000000000000  0.8705482158166756  
  0.0023109499980073  0.3757065964222702  0.3750506906030571  
  0.0007177793566588  0.3724631614803692  0.8706950524725399  
  0.0861165591413725  0.7509628694476638  0.2807427462504094  
  0.0838751058951116  0.7532235100897877  0.7853392132411834  
  0.0865507021116979  0.0001021486229329  0.2823610868690372  
  0.0871870097199449  0.9995757112627188  0.7825798731944923  
  0.0865507021116979  0.2498978513770670  0.2823610868690372  
  0.0871870097199449  0.2504242887372816  0.7825798731944923  
  0.0861165591413725  0.4990371305523363  0.2807427462504094  
  0.0838751058951116  0.4967764899102121  0.7853392132411834  
  0.1618073784292686  0.6250000000000000  0.2139747819121659  
  0.1585110413211405  0.6250000000000000  0.7270086571963112  
  0.1624263314380288  0.8768908030389126  0.2148734690650390  
  0.1631549723934299  0.8711283071622841  0.7160831167323712  
  0.1630584552211556  0.1250000000000000  0.2188932494177521  
  0.1633948441053140  0.1250000000000000  0.7182381541939300  
  0.1624263314380288  0.3731091969610877  0.2148734690650390  
  0.1631549723934299  0.3788716928377162  0.7160831167323712  
  0.1652464782134586  0.6250000000000000  0.4327069342037646  
  0.1692624094611198  0.6250000000000000  0.9467284475017546  
  0.1668970000730885  0.8744295529131840  0.4449132227927634  
  0.1682498183981529  0.8753361257719918  0.9445333745516518  
  0.1682849597872874  0.1250000000000000  0.4469980977928014  
  0.1681090351579772  0.1250000000000000  0.9460318494217907  
  0.1668970000730885  0.3755704470868158  0.4449132227927634  
  0.1682498183981529  0.3746638742280085  0.9445333745516518  
  0.0807713321587246  0.7508934980224751  0.0555647347146029  
  0.0861531936101986  0.7381530952434372  0.5541079877495434  
  0.0813802142521198  0.0003912737635858  0.0543971537113860  
  0.0819280763172610  0.9988625341152152  0.5549887950813610  
  0.0813802142521198  0.2496087262364143  0.0543971537113860  
  0.0819280763172610  0.2511374658847850  0.5549887950813610  
  0.0807713321587246  0.4991065019775252  0.0555647347146029  
  0.0861531936101986  0.5118469047565628  0.5541079877495434  
  0.4984290603827199  0.6250000000000000  0.1320517116068936  
  0.4986935518574152  0.6250000000000000  0.6275272202415231  
  0.4992822206433412  0.8775368385196308  0.1293049475274599  
  0.4976890500019926  0.8742934035777300  0.6249493093969430  
  0.4982257757410870  0.1250000000000000  0.1294517841833245  
  0.4977862941646689  0.1250000000000000  0.6272463249319120  
  0.4992822206433412  0.3724631614803692  0.1293049475274599  
  0.4976890500019926  0.3757065964222702  0.6249493093969430  
  0.2506539251837220  0.7440360093967239  0.3781661781193590  
  0.2522982036776266  0.7511524567142239  0.8703651784895760  
  0.2519123964294562  0.9984554736122478  0.3715622304657733  
  0.2519853189607409  0.0003940848239437  0.8717765738608261  
  0.2519123964294562  0.2515445263877522  0.3715622304657733  
  0.2519853189607409  0.2496059151760563  0.8717765738608261  
  0.2506539251837220  0.5059639906032761  0.3781661781193590  
  0.2522982036776266  0.4988475432857759  0.8703651784895760  
  0.3414889586788594  0.6250000000000000  0.2729923428036932  
  0.3381926215707316  0.6250000000000000  0.7860262180878319  
  0.3368450276065703  0.8711283071622841  0.2839178832676333  
  0.3375736685619711  0.8768908030389126  0.7851275309349585  
  0.3366051558946860  0.1250000000000000  0.2817628458060674  
  0.3369415447788444  0.1250000000000000  0.7811077505822526  
  0.3368450276065703  0.3788716928377162  0.2839178832676333  
  0.3375736685619711  0.3731091969610877  0.7851275309349585  
  0.4161248941048884  0.7532235100897877  0.2146617867588140  
  0.4138834408586275  0.7509628694476638  0.7192582537495880  
  0.4128129902800551  0.9995757112627188  0.2174211268055050  
  0.4134492978883021  0.0001021486229329  0.7176399131309600  
  0.4128129902800551  0.2504242887372816  0.2174211268055050  
  0.4134492978883021  0.2498978513770670  0.7176399131309600  
  0.4161248941048884  0.4967764899102121  0.2146617867588140  
  0.4138834408586275  0.4990371305523363  0.7192582537495880  
  0.4138468063898014  0.7381530952434372  0.4458920122504567  
  0.4192286678412754  0.7508934980224751  0.9444352652853972  
  0.4180719236827390  0.9988625341152152  0.4450112049186387  
  0.4186197857478803  0.0003912737635858  0.9456028462886140  
  0.4180719236827390  0.2511374658847850  0.4450112049186387  
  0.4186197857478803  0.2496087262364143  0.9456028462886140  
  0.4138468063898014  0.5118469047565628  0.4458920122504567  
  0.4192286678412754  0.4991065019775252  0.9444352652853972  
  0.3307375905388802  0.6250000000000000  0.0532715524982455  
  0.3347535217865414  0.6250000000000000  0.5672930657962356  
  0.3317501816018470  0.8753361257719918  0.0554666254483484  
  0.3331029999269116  0.8744295529131840  0.5550867772072365  
  0.3318909648420227  0.1250000000000000  0.0539681505782090  
  0.3317150402127125  0.1250000000000000  0.5530019022071986  
  0.3317501816018470  0.3746638742280085  0.0554666254483484  
  0.3331029999269116  0.3755704470868158  0.5550867772072365  
  0.7478705289174317  0.0004844245160698  0.1281698983486703  
  0.7481273035515141  0.9999500310153442  0.6281719824554097  
  0.7478705289174317  0.2495155754839302  0.1281698983486703  
  0.7481273035515141  0.2500499689846554  0.6281719824554097  
  0.7478962888473581  0.4998318295690096  0.1280834137106134  
  0.7477169924931997  0.5000538345645629  0.6280722545975361  
  0.7478962888473581  0.7501681704309906  0.1280834137106134  
  0.7477169924931997  0.7499461654354371  0.6280722545975361  
  0.5011919436596081  0.1250000000000000  0.3711198552687605  
  0.5023674399127457  0.1250000000000000  0.8717696972488057  
  0.5008757065552129  0.3774677425686163  0.3742291752980364  
  0.5028653309291550  0.3745992942052486  0.8710828479685161  
  0.5064715061507870  0.6250000000000000  0.3760494043063697  
  0.5025689254113852  0.6250000000000000  0.8721209954412423  
  0.5008757065552129  0.8725322574313836  0.3742291752980364  
  0.5028653309291550  0.8754007057947516  0.8710828479685161  
  0.5864688059345985  0.9996279014664836  0.2831154940799285  
  0.5867338512948307  0.9999181142291180  0.7814217990574104  
  0.5864688059345985  0.2503720985335163  0.2831154940799285  
  0.5867338512948307  0.2500818857708825  0.7814217990574104  
  0.5875113434120673  0.4991801684951793  0.2818994587370234  
  0.5869702990961645  0.4998780582124026  0.7819640701124584  
  0.5875113434120673  0.7508198315048208  0.2818994587370234  
  0.5869702990961645  0.7501219417875972  0.7819640701124584  
  0.6630713626088335  0.1250000000000000  0.2187104986028200  
  0.6631212570637665  0.1250000000000000  0.7174485816735913  
  0.6635646009713626  0.3746532567939703  0.2180154022646561  
  0.6635044774198298  0.3745005496187362  0.7182192047131493  
  0.6635176440466762  0.6250000000000000  0.2177222387087135  
  0.6635911701261293  0.6250000000000000  0.7183874063664675  
  0.6635646009713626  0.8753467432060298  0.2180154022646561  
  0.6635044774198298  0.8754994503812634  0.7182192047131493  
  0.6681827737020043  0.1250000000000000  0.4460931075397810  
  0.6678968295271872  0.1250000000000000  0.9452236540981640  
  0.6680783330425372  0.3752727389569325  0.4455752916936901  
  0.6681208606668042  0.3748277138750640  0.9454119074436854  
  0.6679926317396858  0.6250000000000000  0.4449987142762590  
  0.6680719206560602  0.6250000000000000  0.9453741613887272  
  0.6680783330425372  0.8747272610430675  0.4455752916936901  
  0.6681208606668042  0.8751722861249362  0.9454119074436854  
  0.5824397313715695  0.0007608782250857  0.0548995726256815  
  0.5811038701272706  0.9997008145793200  0.5538820082134250  
  0.5824397313715695  0.2492391217749143  0.0548995726256815  
  0.5811038701272706  0.2502991854206800  0.5538820082134250  
  0.5812269474105161  0.4999027925196510  0.0550535874236057  
  0.5828841865226421  0.4994930515601865  0.5563054122398151  
  0.5812269474105161  0.7500972074803488  0.0550535874236057  
  0.5828841865226421  0.7505069484398135  0.5563054122398151  
  0.9976325600872544  0.1250000000000000  0.1282303027511938  
  0.9988080563403920  0.1250000000000000  0.6288801447312394  
  0.9971346690708450  0.3745992942052486  0.1289171520314840  
  0.9991242934447871  0.3774677425686163  0.6257708247019639  
  0.9974310745886148  0.6250000000000000  0.1278790045587576  
  0.9935284938492130  0.6250000000000000  0.6239505956936302  
  0.9971346690708450  0.8754007057947516  0.1289171520314840  
  0.9991242934447871  0.8725322574313836  0.6257708247019639  
  0.7518726964484859  0.9999500310153442  0.3718280175445901  
  0.7521294710825683  0.0004844245160698  0.8718301016513298  
  0.7518726964484859  0.2500499689846554  0.3718280175445901  
  0.7521294710825683  0.2495155754839302  0.8718301016513298  
  0.7522830075068003  0.5000538345645629  0.3719277454024639  
  0.7521037111526419  0.4998318295690096  0.8719165862893865  
  0.7522830075068003  0.7499461654354371  0.3719277454024639  
  0.7521037111526419  0.7501681704309906  0.8719165862893865  
  0.8368787429362335  0.1250000000000000  0.2825514183264086  
  0.8369286373911665  0.1250000000000000  0.7812895013971800  
  0.8364955225801702  0.3745005496187362  0.2817807952868505  
  0.8364353990286374  0.3746532567939703  0.7819845977353440  
  0.8364088298738707  0.6250000000000000  0.2816125936335329  
  0.8364823559533238  0.6250000000000000  0.7822777612912865  
  0.8364955225801702  0.8754994503812634  0.2817807952868505  
  0.8364353990286374  0.8753467432060298  0.7819845977353440  
  0.9132661487051692  0.9999181142291180  0.2185782009425895  
  0.9135311940654016  0.9996279014664836  0.7168845059200716  
  0.9132661487051692  0.2500818857708825  0.2185782009425895  
  0.9135311940654016  0.2503720985335163  0.7168845059200716  
  0.9130297009038356  0.4998780582124026  0.2180359298875417  
  0.9124886565879328  0.4991801684951793  0.7181005412629767  
  0.9130297009038356  0.7501219417875972  0.2180359298875417  
  0.9124886565879328  0.7508198315048208  0.7181005412629767  
  0.9188961298727294  0.9997008145793200  0.4461179917865747  
  0.9175602686284304  0.0007608782250857  0.9451004273743180  
  0.9188961298727294  0.2502991854206800  0.4461179917865747  
  0.9175602686284304  0.2492391217749143  0.9451004273743180  
  0.9171158134773580  0.4994930515601865  0.4436945877601847  
  0.9187730525894841  0.4999027925196510  0.9449464125763940  
  0.9171158134773580  0.7505069484398135  0.4436945877601847  
  0.9187730525894841  0.7500972074803488  0.9449464125763940  
  0.8321031704728128  0.1250000000000000  0.0547763459018360  
  0.8318172262979957  0.1250000000000000  0.5539068924602193  
  0.8318791393331958  0.3748277138750640  0.0545880925563145  
  0.8319216669574628  0.3752727389569325  0.5544247083063095  
  0.8319280793439398  0.6250000000000000  0.0546258386112725  
  0.8320073682603142  0.6250000000000000  0.5550012857237412  
  0.8318791393331958  0.8751722861249362  0.0545880925563145  
  0.8319216669574628  0.8747272610430675  0.5544247083063095  
