Au   Ga   O                             
   1.00000000000000     
    24.9361379999999997    0.0000000000000000    0.0000000000000000
     0.0000000000000000   12.3494290000000007    0.0000000000000000
    -2.7833760000000001    0.0000000000000000   11.4316289999999992
   Au   Ga   O 
     1   128   192
Direct
  0.3747226285627781  0.5626647394675590  0.4995514666340586
  0.2822378570554024  0.6295693773188779  0.3724633082872644
  0.4269602750180274  0.6316651166549573  0.3286062969866007
  0.4212938065954964  0.6228340399478710  0.8425090146589500
  0.4217569660791408  0.8778879889735838  0.3399244428096553
  0.4208171052090756  0.8752179708181508  0.8407262458117675
  0.4212454359031051  0.1243600664525752  0.3439402908326883
  0.4208800697574123  0.1246566909180442  0.8427594331358733
  0.4232191592038793  0.3698946757879438  0.3396736844624218
  0.4217446783648588  0.3741100046112103  0.8467096351721287
  0.3282274963390712  0.5022374578246779  0.1565750011222393
  0.3227989242723778  0.4931835744259326  0.6704704863292273
  0.3277852795846348  0.7507314540587333  0.1524146428804357
  0.3263224058168256  0.7551159757138718  0.6595345875212547
  0.3286849553457925  0.0002173316259885  0.1567025850421550
  0.3282806760987920  0.0005631036148576  0.6554726496369783
  0.3287216238458461  0.2497703839886854  0.1585845751950720
  0.3278382945693351  0.2469755470401553  0.6594420532429087
  0.4560744548717200  0.5005317081331880  0.1024479840242780
  0.4672090010272832  0.4954247002655241  0.6265500672171467
  0.4562646794801013  0.7508728804430699  0.0972957376856432
  0.4556905175401353  0.7485479297153016  0.6004431806213691
  0.4554941112440608  0.0003476186855202  0.1016025919652010
  0.4554567585333408  0.9981064972374042  0.6024956219711421
  0.4560583418413902  0.2498416103270465  0.1027329061814465
  0.4549736625342772  0.2464309482645224  0.6039583814357392
  0.2935053422373294  0.6244198090755599  0.8965174647221104
  0.2945986428830458  0.8784985569088204  0.3953662967374010
  0.2935188070937630  0.8750919325822287  0.8966094495570550
  0.2941389417987224  0.1268054780954510  0.3969889814321487
  0.2940949927001661  0.1245964483405637  0.8978508278353713
  0.2939468497075249  0.3763864453424509  0.3988087499631826
  0.2933465497977048  0.3741108679077471  0.9019345767526070
  0.1673005989880323  0.4990854350248102  0.3413530058544239
  0.1692981767833987  0.4994633928083460  0.8413999774077453
  0.1669423937450651  0.7533083660533367  0.3408460042079464
  0.1694293270184732  0.7504093582559658  0.8411549880183030
  0.1694940082094787  0.0014206009687772  0.3412118937387459
  0.1694328160246447  0.0002800973602189  0.8424562898622501
  0.1695287370585203  0.2499391746556319  0.3412714675577792
  0.1693885069172126  0.2495561391345400  0.8429419466969826
  0.0778374891914350  0.6253004685686221  0.1552922493206508
  0.0781449641527108  0.6250484808382052  0.6564445367770506
  0.0776710919645410  0.8762472100245765  0.1549013499574212
  0.0779502910211802  0.8752515884561544  0.6565527593506606
  0.0779737859395568  0.1252388213966753  0.1562240661071333
  0.0780908383379472  0.1249004909513749  0.6567504816189567
  0.0778463294250718  0.3743598306293703  0.1553634293266101
  0.0778344114662528  0.3746644774703441  0.6568439308863910
  0.2027076108360711  0.6253819956111322  0.0991103290610446
  0.2032981209747315  0.6265431965117675  0.6013160756998088
  0.2036688524180990  0.8755607283149783  0.1019064377316073
  0.2025769387129704  0.8771667781792878  0.6013650994471430
  0.2047303212070150  0.1253674974646238  0.1027473484123004
  0.2035648088845774  0.1243622593446693  0.6021524538436318
  0.2039824468849661  0.3754223320387257  0.1027226919966639
  0.2019318660876436  0.3719862313049140  0.6016089819761656
  0.0437142286996978  0.4998670492526271  0.3976484950607745
  0.0440548962645364  0.4999463942902095  0.8969148163097684
  0.0436122219206115  0.7502327225682962  0.3974692841073634
  0.0440516187960756  0.7501231582271929  0.8966464269205239
  0.0442827164038893  0.0002799302999796  0.3970645824751838
  0.0437737802992587  0.0002658667325484  0.8965269136937390
  0.0443139191738495  0.2498512822066237  0.3972165691714991
  0.0437820649570749  0.2497666181400671  0.8968221505983434
  0.9203812276588714  0.1250233042394755  0.3426876183152111
  0.9201239774407786  0.1249496492673278  0.8424728380636540
  0.9203042769086401  0.3748468771559644  0.3425183463187699
  0.9202633722048992  0.3749498972109669  0.8425039732846501
  0.9202004681748472  0.6249359817407644  0.3424641653132456
  0.9203353967008621  0.6250070631136486  0.8425076467814548
  0.9203000564653917  0.8750999252370687  0.3426122354051737
  0.9202616042379517  0.8749919611873659  0.8424454383570483
  0.8294871483944629  0.9999489176571520  0.1570184856342699
  0.8292154121457018  0.9998734265923865  0.6568188405377035
  0.8293589371730650  0.2498849010008126  0.1570280856790703
  0.8293031239637204  0.2497947932241406  0.6568599005811807
  0.8293002336321020  0.4998632048546696  0.1569134297226732
  0.8294166773570358  0.4999430754666700  0.6569722361653721
  0.8293673718097315  0.7499415056447126  0.1569323509183771
  0.8293086313247379  0.7500348550344097  0.6569536051023669
  0.9541907413916964  0.0002092970235852  0.1017876329792326
  0.9542616425723219  0.0000174798067739  0.6019108161217891
  0.9542149855549711  0.2500341165757451  0.1018593325565914
  0.9542528618366034  0.2498397252922455  0.6019020337418839
  0.9542948630969487  0.5000205895516961  0.1018699768790768
  0.9543454430644941  0.4999958034949353  0.6019439448266619
  0.9542742431477335  0.7500682785451812  0.1018330496573003
  0.9543445227758700  0.7499295922219961  0.6019787902129733
  0.7953237448630498  0.1248950236999688  0.3975624319198615
  0.7954108464464668  0.1246774272448003  0.8977066610594620
  0.7952713909244233  0.3749592696121844  0.3974482471472067
  0.7953420010481320  0.3747806435110501  0.8976079582269930
  0.7952920757180686  0.6249103791078363  0.3974872937876723
  0.7953237336945953  0.6248530279569938  0.8975570927429863
  0.7953558252467378  0.8750756023535815  0.3975658373493250
  0.7953800776396888  0.8748601015484667  0.8976094508032523
  0.6714934430673412  0.0000165696031679  0.3427746963405116
  0.6716030722075937  0.9996776267805609  0.8433145534558869
  0.6716305878391587  0.2496749917631446  0.3429346190191391
  0.6718953528455949  0.2486692933316289  0.8445524838628415
  0.6714898791478926  0.4998722606427418  0.3428919496101059
  0.6717661387096683  0.4995942893924992  0.8441303496342697
  0.6717945914124217  0.7502471939986597  0.3425607590232634
  0.6717435495880819  0.7505135330471161  0.8440843278433984
  0.5801578157918961  0.1246813081328100  0.1570956571885681
  0.5800859713988336  0.1235388869068285  0.6582843686188432
  0.5801912230655980  0.3745475200562357  0.1581528072952875
  0.5826218088370821  0.3716617006380782  0.6585366383105982
  0.5803269357427493  0.6254807645584143  0.1578277358320492
  0.5822936511119471  0.6257691256480140  0.6579996631471566
  0.5802392644884703  0.8753889009270938  0.1565297783271830
  0.5801000050473533  0.8749958934694562  0.6581973776747129
  0.7058049572149711  0.1246526046318358  0.1029652522257909
  0.7053079403777470  0.1246295536749290  0.6024504041001675
  0.7055769651790955  0.3747656261578430  0.1027582181643141
  0.7059777435591446  0.3746787253208582  0.6019811878140965
  0.7056021694826862  0.6249472802115341  0.1024918286294367
  0.7058826943435509  0.6250107680050266  0.6017738712141965
  0.7058318574396361  0.8751435978623571  0.1026328138547205
  0.7052920355786008  0.8750281952611216  0.6022649468491845
  0.5459839608917848  0.0006044524781845  0.3973240314829474
  0.5448524412909999  0.9995441266486882  0.8967919504320215
  0.5469622578996640  0.2477786143709831  0.3980640310542883
  0.5458450306841475  0.2494067331629515  0.8975059570401633
  0.5463911123260885  0.4983281898601698  0.3979808855779192
  0.5468051531082558  0.4995734894918081  0.9000961063148265
  0.5477521289201919  0.7529779116015880  0.3978123042047803
  0.5455607640521309  0.7495262978422340  0.8965991087253192
  0.2479953323744827  0.4976090800717359  0.3655847192377223
  0.2510493442669325  0.4992906213587368  0.8720325552419808
  0.2475128865676757  0.7592572827493660  0.3633957505749814
  0.2512528366658233  0.7496610052198313  0.8714607095321857
  0.2512653357228638  0.0022445954375214  0.3707498918416822
  0.2511965392789552  0.0000510682323133  0.8710088698701738
  0.2513895796218870  0.2515409121733265  0.3714536809438160
  0.2511989886494193  0.2493144975428005  0.8732573927370963
  0.4985564009882849  0.6256509489196099  0.1271404273512794
  0.5015817149789336  0.6272389092127219  0.6334785356883875
  0.4984179817512572  0.8756551818794134  0.1261127355124840
  0.4982325529811925  0.8734045566748406  0.6280023551598124
  0.4983955918305793  0.1248942174083034  0.1285420365739054
  0.4983180731315435  0.1226909518956568  0.6287367508218626
  0.4983371674188067  0.3752805142759329  0.1278351842159215
  0.5019881202690885  0.3658105519791624  0.6356815664889214
  0.4139094086051417  0.5035637750562790  0.2191569535199739
  0.4164037045675878  0.4957271336433476  0.7267171964809173
  0.4135751128196020  0.7512629424009425  0.2119474170248387
  0.4110702235570619  0.7460005467924725  0.7116433579858328
  0.4132545183995023  0.0005775853483339  0.2169381303871312
  0.4125892564386885  0.9987011563882444  0.7165571417723726
  0.4133351527734705  0.2504819749146772  0.2174526439278754
  0.4124825723946067  0.2497000944754911  0.7180797399642136
  0.3330212017592647  0.6292607742987447  0.2723029357005521
  0.3356055439758081  0.6215335850417406  0.7797306938923469
  0.3371169383112169  0.8751963840973555  0.2813022443629587
  0.3362233327543821  0.8744598962586688  0.7818655984011412
  0.3369750779968117  0.1262464910579633  0.2828837444361084
  0.3363353791835199  0.1243692410279104  0.7825352149965400
  0.3385029543982596  0.3789146508421188  0.2874867969062092
  0.3360111509501758  0.3736985891254465  0.7872689437186946
  0.3320549379188906  0.6250908471245655  0.0512704290912210
  0.3118614937563666  0.6329149289893856  0.5484729103306252
  0.3313186894170801  0.8757139288965500  0.0531025576308297
  0.3305987607389520  0.8754991991722960  0.5528698341266354
  0.3313088689943328  0.1254057358891287  0.0549596780655539
  0.3312203620845050  0.1252720862747424  0.5541772639842706
  0.3314652417269299  0.3756444006295176  0.0580828536417129
  0.3271643432515607  0.3740722290789948  0.5595017186765927
  0.4375740309315211  0.4924258178894063  0.4504088195037332
  0.4175770138921887  0.4998594075753990  0.9477129361118941
  0.4226034142346050  0.7506766435804726  0.4396868706480511
  0.4180860374752726  0.7493100033922400  0.9411691429563421
  0.4183902216104635  0.9995920741602708  0.4452962343856304
  0.4182656333820681  0.9995051433606850  0.9444956809904917
  0.4189941459664669  0.2495025325876921  0.4464490338974028
  0.4182567406863051  0.2492229205459117  0.9462423428792600
  0.0012697605391671  0.6249848914548065  0.3714561476382008
  0.0014439261560172  0.6250078591046613  0.8713082780136987
  0.0013619805354658  0.8754544646550886  0.3713889472094532
  0.0012981709230410  0.8750144839330475  0.8712638697217703
  0.0014310352616574  0.1251088548266470  0.3716155088684883
  0.0010073426877592  0.1250394701709500  0.8709371792776369
  0.0014164659067376  0.3746929684296903  0.3715186083179468
  0.0013280480014595  0.3750385424509241  0.8713370272956437
  0.2467924955151159  0.5010779916118170  0.1266878115790502
  0.2436618642863339  0.4980610735856167  0.6309351179075782
  0.2463944292286313  0.7500453434511954  0.1247943956274597
  0.2452854578170681  0.7529195050101289  0.6316024150076701
  0.2475627793774740  0.9998781855385548  0.1284191076967246
  0.2471503222232147  0.0001494985570435  0.6276769738709922
  0.2477292655602640  0.2508966871708420  0.1297033479899477
  0.2464801156303264  0.2489989318866581  0.6298998568565544
  0.1620828510890016  0.6257758363929827  0.2164652648541981
  0.1620102283017762  0.6252942666903485  0.7172443153753735
  0.1612909709574518  0.8771064073029777  0.2159263628171894
  0.1618354461995454  0.8760150721808344  0.7178014394032260
  0.1625902715774051  0.1256521657580216  0.2172458284141239
  0.1622383685848921  0.1245936892668134  0.7180281029314077
  0.1616262861695235  0.3744267476492971  0.2166362433149699
  0.1616407680209028  0.3736290063655813  0.7185306801113284
  0.0853834041863787  0.5004457123396567  0.2816117450679180
  0.0857778595937707  0.4996733609832124  0.7815128809961136
  0.0851440698035875  0.7504365760024273  0.2811873159704784
  0.0857616711486107  0.7503306574144771  0.7812997612371485
  0.0856861550353126  0.0010788271083776  0.2810405398512845
  0.0857496258097040  0.0003724051553045  0.7818628258790091
  0.0857765290356391  0.2497876088684270  0.2812438727734649
  0.0857757416438178  0.2494177160716604  0.7821426670636181
  0.0810676864781445  0.4999897148876217  0.0540088432895255
  0.0813693849250462  0.4998280742723735  0.5542222102377362
  0.0809915878926712  0.7504216983770449  0.0537578159684741
  0.0812892389640598  0.7500874378575334  0.5539752778262976
  0.0807886252230925  0.0008240317239467  0.0533402105646251
  0.0811585718486296  0.0001439763897669  0.5542223710127643
  0.0808834761317540  0.2497167158089159  0.0536062468296197
  0.0812592387982213  0.2499184111835505  0.5544037027482753
  0.1684854023698072  0.6264483656879413  0.4435010644460702
  0.1667257008914574  0.6249383559278010  0.9428397937160541
  0.1661451940248957  0.8775215240153030  0.4444741467273420
  0.1675925286214537  0.8751767762118051  0.9445770883850069
  0.1675866448899122  0.1256030856162955  0.4447235636266066
  0.1679077757114541  0.1249201834085666  0.9459113688691679
  0.1665116547126864  0.3740589183900181  0.4444519195002043
  0.1678084695957984  0.3749087760959222  0.9454401268887576
  0.7523834529423123  0.9999387997467510  0.3718705085779760
  0.7525167717599908  0.9997692578059996  0.8720200365719355
  0.7523835316622720  0.2499161547725810  0.3718770932794756
  0.7524898282284125  0.2496732364233354  0.8720102259319875
  0.7522909777109442  0.4999713890997095  0.3718331035764649
  0.7524142080335526  0.4998001829236279  0.8718888659892319
  0.7524391855144588  0.7500094793389085  0.3717641993628956
  0.7524120811894754  0.7498582789794783  0.8718368638508187
  0.9970735956813945  0.1251275622346046  0.1275162831446331
  0.9972125220222029  0.1249633091861406  0.6276159883263982
  0.9971965655137086  0.3750193337052063  0.1276306936111471
  0.9971819874425967  0.3748876625911158  0.6276494161369411
  0.9972112333179489  0.6250638264401116  0.1275625377218542
  0.9973376724067864  0.6249393960314183  0.6275304289237222
  0.9971017054014312  0.8751963018658966  0.1274896614570098
  0.9972073831017997  0.8750024367614170  0.6275655929926981
  0.9129874147962421  0.0000016950360286  0.2178044502430374
  0.9128869453914525  0.9998578117821064  0.7176279721657719
  0.9129662156167309  0.2501024734588346  0.2177984503311255
  0.9128830014055342  0.2500684561815847  0.7176228206593601
  0.9129911322299401  0.4999526865426813  0.2177105548332797
  0.9129768931527087  0.5000070969743029  0.7176435878182057
  0.9130089869839189  0.7499064904406825  0.2177300160858470
  0.9129793219832320  0.7498156381527320  0.7176606792352338
  0.8367211539874565  0.1250513669363905  0.2818709087256447
  0.8366257195245416  0.1248838709199689  0.7817017036675677
  0.8366431765647581  0.3750754656875547  0.2817825124694775
  0.8366134507817052  0.3749713940403291  0.7817196843247410
  0.8366486926488619  0.6248755722509921  0.2817827867161153
  0.8366382193286909  0.6249295775952554  0.7817379397946403
  0.8367318080067063  0.8748222743611199  0.2818537142477756
  0.8366523699754104  0.8747858870934975  0.7817020622396009
  0.8320846094300267  0.1249559962251005  0.0546328488831916
  0.8319427925435353  0.1248625335669361  0.5545154567479232
  0.8319224951249760  0.3749068755197614  0.0545756211014453
  0.8317798052313912  0.3749100318435616  0.5544866596846284
  0.8319053268407176  0.6248607851524622  0.0545548646755017
  0.8318306413300411  0.6249908657612923  0.5544914309554537
  0.8320279464068580  0.8748300661293426  0.0545812331203434
  0.8319545695008064  0.8748992660324943  0.5545047789366788
  0.9176339717309795  0.0000303531368470  0.4449729419953145
  0.9175451401340049  0.9999234472295427  0.9448593825569270
  0.9176287120513921  0.2500072644372139  0.4449847500901684
  0.9175841992160150  0.2500840428962280  0.9448900749750092
  0.9177698898335960  0.4999026449837956  0.4449594925901675
  0.9177226006051199  0.5000276567161444  0.9448839456379979
  0.9178135848277370  0.7499623019314975  0.4449566600219433
  0.9177076699179886  0.7499439947679554  0.9448748022530378
  0.5023915448671488  0.1248042520465455  0.3718345945060237
  0.5020024654548532  0.1250298089422767  0.8710926466787129
  0.5042719494824439  0.3720839884330676  0.3678743532867206
  0.5031090757755756  0.3749124538115851  0.8742977636396139
  0.5060691907593016  0.6268401372501131  0.3683679380956872
  0.5027321391318635  0.6238939460929542  0.8724401878596826
  0.5031428860722909  0.8758964234696357  0.3694802167256245
  0.5018109142838727  0.8740493580346513  0.8697342200606132
  0.7485929241373313  0.9998898676497887  0.1285221044290405
  0.7481558472208787  0.9997951488583657  0.6279469530560148
  0.7483126637104641  0.2498643018201442  0.1282022446623361
  0.7482277051100720  0.2494545441450140  0.6281358144706257
  0.7481866367343226  0.4998677857882861  0.1281061850524602
  0.7483380862180568  0.4999085356016428  0.6280113408601560
  0.7482978449113570  0.7498836879404530  0.1281287417882737
  0.7481854446536557  0.7501824044820785  0.6279846024586800
  0.6638354925794323  0.1245493038215217  0.2176339902224954
  0.6638821125114364  0.1238546299590709  0.7184510292917142
  0.6638467115712531  0.3745711005946331  0.2180538215956021
  0.6644443474866990  0.3744686314400084  0.7182642166798123
  0.6638391224605062  0.6252546268772685  0.2178046506458462
  0.6642085306203579  0.6244040619681160  0.7178115184535716
  0.6638397705539544  0.8755568997899077  0.2173114252410625
  0.6638177557630160  0.8751120297485514  0.7182239878285070
  0.5873668569768954  0.0003556563286546  0.2815103197574590
  0.5869991687892594  0.9992621631412678  0.7822835083302234
  0.5877521981479193  0.2489452073203919  0.2816747604626071
  0.5882470852997053  0.2478818359876685  0.7835032047669910
  0.5876278273881117  0.4995987157498253  0.2819843572837741
  0.5874829207608054  0.4991377242797481  0.7828320429850933
  0.5880011581431115  0.7513004306132943  0.2808205841831948
  0.5879469507535932  0.7504368742362866  0.7827512743064684
  0.5816781227163028  0.0000458289883921  0.0536059787744032
  0.5820024730024875  0.9993667218859734  0.5547460006877299
  0.5819793932363622  0.2497448346166422  0.0548188945011078
  0.5834227591345398  0.2474271893911564  0.5549635374443587
  0.5828437955266049  0.4999824798060269  0.0563372719273405
  0.5811724724119548  0.4984395130190301  0.5558033024413783
  0.5817937010429233  0.7500791485006458  0.0538615454245122
  0.5831174646528660  0.7508782625926058  0.5549967412484449
  0.6684382026503279  0.1247870433904015  0.4452864988137369
  0.6687584643204012  0.1241046185434917  0.9461569032515448
  0.6683032820493119  0.3748841622284939  0.4454461351290918
  0.6685867328509906  0.3745066254992522  0.9456697418600618
  0.6682435181644143  0.6250651588312467  0.4451609176967546
  0.6685462128994518  0.6248952298413265  0.9454224022117039
  0.6683405976686007  0.8749414772900281  0.4450700504016480
  0.6686918340324031  0.8751477841654729  0.9458525193982618
 
  0.00000000E+00  0.00000000E+00  0.00000000E+00
  0.00000000E+00  0.00000000E+00  0.00000000E+00
  0.00000000E+00  0.00000000E+00  0.00000000E+00
  0.00000000E+00  0.00000000E+00  0.00000000E+00
  0.00000000E+00  0.00000000E+00  0.00000000E+00
  0.00000000E+00  0.00000000E+00  0.00000000E+00
  0.00000000E+00  0.00000000E+00  0.00000000E+00
  0.00000000E+00  0.00000000E+00  0.00000000E+00
  0.00000000E+00  0.00000000E+00  0.00000000E+00
  0.00000000E+00  0.00000000E+00  0.00000000E+00
  0.00000000E+00  0.00000000E+00  0.00000000E+00
  0.00000000E+00  0.00000000E+00  0.00000000E+00
  0.00000000E+00  0.00000000E+00  0.00000000E+00
  0.00000000E+00  0.00000000E+00  0.00000000E+00
  0.00000000E+00  0.00000000E+00  0.00000000E+00
  0.00000000E+00  0.00000000E+00  0.00000000E+00
  0.00000000E+00  0.00000000E+00  0.00000000E+00
  0.00000000E+00  0.00000000E+00  0.00000000E+00
  0.00000000E+00  0.00000000E+00  0.00000000E+00
  0.00000000E+00  0.00000000E+00  0.00000000E+00
  0.00000000E+00  0.00000000E+00  0.00000000E+00
  0.00000000E+00  0.00000000E+00  0.00000000E+00
  0.00000000E+00  0.00000000E+00  0.00000000E+00
  0.00000000E+00  0.00000000E+00  0.00000000E+00
  0.00000000E+00  0.00000000E+00  0.00000000E+00
  0.00000000E+00  0.00000000E+00  0.00000000E+00
  0.00000000E+00  0.00000000E+00  0.00000000E+00
  0.00000000E+00  0.00000000E+00  0.00000000E+00
  0.00000000E+00  0.00000000E+00  0.00000000E+00
  0.00000000E+00  0.00000000E+00  0.00000000E+00
  0.00000000E+00  0.00000000E+00  0.00000000E+00
  0.00000000E+00  0.00000000E+00  0.00000000E+00
  0.00000000E+00  0.00000000E+00  0.00000000E+00
  0.00000000E+00  0.00000000E+00  0.00000000E+00
  0.00000000E+00  0.00000000E+00  0.00000000E+00
  0.00000000E+00  0.00000000E+00  0.00000000E+00
  0.00000000E+00  0.00000000E+00  0.00000000E+00
  0.00000000E+00  0.00000000E+00  0.00000000E+00
  0.00000000E+00  0.00000000E+00  0.00000000E+00
  0.00000000E+00  0.00000000E+00  0.00000000E+00
  0.00000000E+00  0.00000000E+00  0.00000000E+00
  0.00000000E+00  0.00000000E+00  0.00000000E+00
  0.00000000E+00  0.00000000E+00  0.00000000E+00
  0.00000000E+00  0.00000000E+00  0.00000000E+00
  0.00000000E+00  0.00000000E+00  0.00000000E+00
  0.00000000E+00  0.00000000E+00  0.00000000E+00
  0.00000000E+00  0.00000000E+00  0.00000000E+00
  0.00000000E+00  0.00000000E+00  0.00000000E+00
  0.00000000E+00  0.00000000E+00  0.00000000E+00
  0.00000000E+00  0.00000000E+00  0.00000000E+00
  0.00000000E+00  0.00000000E+00  0.00000000E+00
  0.00000000E+00  0.00000000E+00  0.00000000E+00
  0.00000000E+00  0.00000000E+00  0.00000000E+00
  0.00000000E+00  0.00000000E+00  0.00000000E+00
  0.00000000E+00  0.00000000E+00  0.00000000E+00
  0.00000000E+00  0.00000000E+00  0.00000000E+00
  0.00000000E+00  0.00000000E+00  0.00000000E+00
  0.00000000E+00  0.00000000E+00  0.00000000E+00
  0.00000000E+00  0.00000000E+00  0.00000000E+00
  0.00000000E+00  0.00000000E+00  0.00000000E+00
  0.00000000E+00  0.00000000E+00  0.00000000E+00
  0.00000000E+00  0.00000000E+00  0.00000000E+00
  0.00000000E+00  0.00000000E+00  0.00000000E+00
  0.00000000E+00  0.00000000E+00  0.00000000E+00
  0.00000000E+00  0.00000000E+00  0.00000000E+00
  0.00000000E+00  0.00000000E+00  0.00000000E+00
  0.00000000E+00  0.00000000E+00  0.00000000E+00
  0.00000000E+00  0.00000000E+00  0.00000000E+00
  0.00000000E+00  0.00000000E+00  0.00000000E+00
  0.00000000E+00  0.00000000E+00  0.00000000E+00
  0.00000000E+00  0.00000000E+00  0.00000000E+00
  0.00000000E+00  0.00000000E+00  0.00000000E+00
  0.00000000E+00  0.00000000E+00  0.00000000E+00
  0.00000000E+00  0.00000000E+00  0.00000000E+00
  0.00000000E+00  0.00000000E+00  0.00000000E+00
  0.00000000E+00  0.00000000E+00  0.00000000E+00
  0.00000000E+00  0.00000000E+00  0.00000000E+00
  0.00000000E+00  0.00000000E+00  0.00000000E+00
  0.00000000E+00  0.00000000E+00  0.00000000E+00
  0.00000000E+00  0.00000000E+00  0.00000000E+00
  0.00000000E+00  0.00000000E+00  0.00000000E+00
  0.00000000E+00  0.00000000E+00  0.00000000E+00
  0.00000000E+00  0.00000000E+00  0.00000000E+00
  0.00000000E+00  0.00000000E+00  0.00000000E+00
  0.00000000E+00  0.00000000E+00  0.00000000E+00
  0.00000000E+00  0.00000000E+00  0.00000000E+00
  0.00000000E+00  0.00000000E+00  0.00000000E+00
  0.00000000E+00  0.00000000E+00  0.00000000E+00
  0.00000000E+00  0.00000000E+00  0.00000000E+00
  0.00000000E+00  0.00000000E+00  0.00000000E+00
  0.00000000E+00  0.00000000E+00  0.00000000E+00
  0.00000000E+00  0.00000000E+00  0.00000000E+00
  0.00000000E+00  0.00000000E+00  0.00000000E+00
  0.00000000E+00  0.00000000E+00  0.00000000E+00
  0.00000000E+00  0.00000000E+00  0.00000000E+00
  0.00000000E+00  0.00000000E+00  0.00000000E+00
  0.00000000E+00  0.00000000E+00  0.00000000E+00
  0.00000000E+00  0.00000000E+00  0.00000000E+00
  0.00000000E+00  0.00000000E+00  0.00000000E+00
  0.00000000E+00  0.00000000E+00  0.00000000E+00
  0.00000000E+00  0.00000000E+00  0.00000000E+00
  0.00000000E+00  0.00000000E+00  0.00000000E+00
  0.00000000E+00  0.00000000E+00  0.00000000E+00
  0.00000000E+00  0.00000000E+00  0.00000000E+00
  0.00000000E+00  0.00000000E+00  0.00000000E+00
  0.00000000E+00  0.00000000E+00  0.00000000E+00
  0.00000000E+00  0.00000000E+00  0.00000000E+00
  0.00000000E+00  0.00000000E+00  0.00000000E+00
  0.00000000E+00  0.00000000E+00  0.00000000E+00
  0.00000000E+00  0.00000000E+00  0.00000000E+00
  0.00000000E+00  0.00000000E+00  0.00000000E+00
  0.00000000E+00  0.00000000E+00  0.00000000E+00
  0.00000000E+00  0.00000000E+00  0.00000000E+00
  0.00000000E+00  0.00000000E+00  0.00000000E+00
  0.00000000E+00  0.00000000E+00  0.00000000E+00
  0.00000000E+00  0.00000000E+00  0.00000000E+00
  0.00000000E+00  0.00000000E+00  0.00000000E+00
  0.00000000E+00  0.00000000E+00  0.00000000E+00
  0.00000000E+00  0.00000000E+00  0.00000000E+00
  0.00000000E+00  0.00000000E+00  0.00000000E+00
  0.00000000E+00  0.00000000E+00  0.00000000E+00
  0.00000000E+00  0.00000000E+00  0.00000000E+00
  0.00000000E+00  0.00000000E+00  0.00000000E+00
  0.00000000E+00  0.00000000E+00  0.00000000E+00
  0.00000000E+00  0.00000000E+00  0.00000000E+00
  0.00000000E+00  0.00000000E+00  0.00000000E+00
  0.00000000E+00  0.00000000E+00  0.00000000E+00
  0.00000000E+00  0.00000000E+00  0.00000000E+00
  0.00000000E+00  0.00000000E+00  0.00000000E+00
  0.00000000E+00  0.00000000E+00  0.00000000E+00
  0.00000000E+00  0.00000000E+00  0.00000000E+00
  0.00000000E+00  0.00000000E+00  0.00000000E+00
  0.00000000E+00  0.00000000E+00  0.00000000E+00
  0.00000000E+00  0.00000000E+00  0.00000000E+00
  0.00000000E+00  0.00000000E+00  0.00000000E+00
  0.00000000E+00  0.00000000E+00  0.00000000E+00
  0.00000000E+00  0.00000000E+00  0.00000000E+00
  0.00000000E+00  0.00000000E+00  0.00000000E+00
  0.00000000E+00  0.00000000E+00  0.00000000E+00
  0.00000000E+00  0.00000000E+00  0.00000000E+00
  0.00000000E+00  0.00000000E+00  0.00000000E+00
  0.00000000E+00  0.00000000E+00  0.00000000E+00
  0.00000000E+00  0.00000000E+00  0.00000000E+00
  0.00000000E+00  0.00000000E+00  0.00000000E+00
  0.00000000E+00  0.00000000E+00  0.00000000E+00
  0.00000000E+00  0.00000000E+00  0.00000000E+00
  0.00000000E+00  0.00000000E+00  0.00000000E+00
  0.00000000E+00  0.00000000E+00  0.00000000E+00
  0.00000000E+00  0.00000000E+00  0.00000000E+00
  0.00000000E+00  0.00000000E+00  0.00000000E+00
  0.00000000E+00  0.00000000E+00  0.00000000E+00
  0.00000000E+00  0.00000000E+00  0.00000000E+00
  0.00000000E+00  0.00000000E+00  0.00000000E+00
  0.00000000E+00  0.00000000E+00  0.00000000E+00
  0.00000000E+00  0.00000000E+00  0.00000000E+00
  0.00000000E+00  0.00000000E+00  0.00000000E+00
  0.00000000E+00  0.00000000E+00  0.00000000E+00
  0.00000000E+00  0.00000000E+00  0.00000000E+00
  0.00000000E+00  0.00000000E+00  0.00000000E+00
  0.00000000E+00  0.00000000E+00  0.00000000E+00
  0.00000000E+00  0.00000000E+00  0.00000000E+00
  0.00000000E+00  0.00000000E+00  0.00000000E+00
  0.00000000E+00  0.00000000E+00  0.00000000E+00
  0.00000000E+00  0.00000000E+00  0.00000000E+00
  0.00000000E+00  0.00000000E+00  0.00000000E+00
  0.00000000E+00  0.00000000E+00  0.00000000E+00
  0.00000000E+00  0.00000000E+00  0.00000000E+00
  0.00000000E+00  0.00000000E+00  0.00000000E+00
  0.00000000E+00  0.00000000E+00  0.00000000E+00
  0.00000000E+00  0.00000000E+00  0.00000000E+00
  0.00000000E+00  0.00000000E+00  0.00000000E+00
  0.00000000E+00  0.00000000E+00  0.00000000E+00
  0.00000000E+00  0.00000000E+00  0.00000000E+00
  0.00000000E+00  0.00000000E+00  0.00000000E+00
  0.00000000E+00  0.00000000E+00  0.00000000E+00
  0.00000000E+00  0.00000000E+00  0.00000000E+00
  0.00000000E+00  0.00000000E+00  0.00000000E+00
  0.00000000E+00  0.00000000E+00  0.00000000E+00
  0.00000000E+00  0.00000000E+00  0.00000000E+00
  0.00000000E+00  0.00000000E+00  0.00000000E+00
  0.00000000E+00  0.00000000E+00  0.00000000E+00
  0.00000000E+00  0.00000000E+00  0.00000000E+00
  0.00000000E+00  0.00000000E+00  0.00000000E+00
  0.00000000E+00  0.00000000E+00  0.00000000E+00
  0.00000000E+00  0.00000000E+00  0.00000000E+00
  0.00000000E+00  0.00000000E+00  0.00000000E+00
  0.00000000E+00  0.00000000E+00  0.00000000E+00
  0.00000000E+00  0.00000000E+00  0.00000000E+00
  0.00000000E+00  0.00000000E+00  0.00000000E+00
  0.00000000E+00  0.00000000E+00  0.00000000E+00
  0.00000000E+00  0.00000000E+00  0.00000000E+00
  0.00000000E+00  0.00000000E+00  0.00000000E+00
  0.00000000E+00  0.00000000E+00  0.00000000E+00
  0.00000000E+00  0.00000000E+00  0.00000000E+00
  0.00000000E+00  0.00000000E+00  0.00000000E+00
  0.00000000E+00  0.00000000E+00  0.00000000E+00
  0.00000000E+00  0.00000000E+00  0.00000000E+00
  0.00000000E+00  0.00000000E+00  0.00000000E+00
  0.00000000E+00  0.00000000E+00  0.00000000E+00
  0.00000000E+00  0.00000000E+00  0.00000000E+00
  0.00000000E+00  0.00000000E+00  0.00000000E+00
  0.00000000E+00  0.00000000E+00  0.00000000E+00
  0.00000000E+00  0.00000000E+00  0.00000000E+00
  0.00000000E+00  0.00000000E+00  0.00000000E+00
  0.00000000E+00  0.00000000E+00  0.00000000E+00
  0.00000000E+00  0.00000000E+00  0.00000000E+00