Au1 Ga128 O192
   1.00000000000000
    24.9361379999999997    0.0000000000000000    0.0000000000000000
     0.0000000000000000   12.3494290000000007    0.0000000000000000
    -2.7833760000000001    0.0000000000000000   11.4316289999999992
   Au   Ga   O
     1   128   192
Direct
  0.3384747161251770  0.6250000000000000  0.4260495987371610
  0.2478093115805751  0.6249979729999993  0.2441193302042137
  0.4300784015342574  0.6250000000000000  0.3439864474871716
  0.4208418544244568  0.6250000000000000  0.8469796823115739
  0.4223037505407177  0.8762478725678966  0.3428087172021860
  0.4226138173550543  0.8753917561650476  0.8440311665905074
  0.4216218612750722  0.1250000000000000  0.3437228151553218
  0.4208240132423144  0.1250000000000000  0.8416967900486361
  0.4223037505407177  0.3737531404321062  0.3428067502021831
  0.4226138173550543  0.3746082438349526  0.8440301525905087
  0.3305601238489219  0.4989866000295446  0.1479696977592699
  0.3291926180057379  0.4961762875627326  0.6670181212010646
  0.3305611078489181  0.7510133999704549  0.1479706517592707
  0.3291926180057379  0.7538236824372647  0.6670191342010667
  0.3292296553920913 -0.0000606842645706  0.1596962488332557
  0.3293492077080632 -0.0001295042659315  0.6539204169853432
  0.3292296553920913  0.2500616902645757  0.1596951758332557
  0.3293492077080632  0.2501295022659312  0.6539183899853425
  0.4570118005730240  0.4997715504619811  0.1037032591062097
  0.4576004787052338  0.4987616581931171  0.6083231236035870
  0.4570128135730261  0.7502284495380193  0.1037043321062097
  0.4576004787052338  0.7512383418068826  0.6083240776035878
  0.4555848273007990  0.0002517191870909  0.1022781100616867
  0.4560665500235992  0.0004271254638770  0.6028668739910242
  0.4555848273007990  0.2497482758129123  0.1022770970616917
  0.4560665500235992  0.2495728705361228  0.6028658609910292
  0.2931665250752727  0.6249989869999979  0.8991564128092251
  0.2934167688451499  0.8638257882092711  0.3946566036459241
  0.2946729132827474  0.8764846225205419  0.8965725011791918
  0.2936328892334553  0.1250000000000000  0.3959942594570414
  0.2953996466391591  0.1250009979999973  0.8974354624293656
  0.2934167688451499  0.3861742117907286  0.3946555906459220
  0.2946738962827470  0.3735154074794607  0.8965714871791932
  0.1674354567466589  0.4956340979623159  0.3489265642106261
  0.1716039646926749  0.4962888628901539  0.8358000575208946
  0.1674354567466589  0.7543649180376877  0.3489285312106290
  0.1716039646926749  0.7537111071098511  0.8358000575208946
  0.1717529805503506  0.0009078389020237  0.3426480618476992
  0.1706579060588002  0.0002124324692381  0.8457385985324531
  0.1717529805503506  0.2490921560979794  0.3426470488476971
  0.1706579060588002  0.2497885625307554  0.8457375855324581
  0.0663408208412698  0.6250000000000000  0.1776672839775008
  0.0794859944556381  0.6250000000000000  0.6568956473736136
  0.0792415885182802  0.8794169992973712  0.1585017854607889
  0.0782786714525973  0.8762998369996774  0.6573823860241104
  0.0793582512318698  0.1250000000000000  0.1572077940132796
  0.0790913390480397  0.1250000000000000  0.6577378426308419
  0.0792425725182763  0.3705830007026286  0.1585007724607868
  0.0782786714525973  0.3737001630003224  0.6573813720241117
  0.1426602053246846  0.6250000000000000  0.0573343603439119
  0.2054225172491633  0.6250000000000000  0.5974712403808999
  0.2068748327093416  0.8687470313539521  0.1048405933031167
  0.2046424533938545  0.8764919089612104  0.6023036543421000
  0.2061017408435576  0.1250019969999983  0.1032744588792713
  0.2048105566730135  0.1250000000000000  0.6035473513442722
  0.2068748327093416  0.3812539526460512  0.1048405933031167
  0.2046424533938545  0.3735081210387921  0.6023027013420957
  0.0418626661045207  0.4983236042736354  0.4012680318384359
  0.0422891511646464  0.5002359967876874  0.8911550111468919
  0.0418616821045246  0.7516763657263619  0.4012680318384359
  0.0422891511646464  0.7497640032123125  0.8911550111468919
  0.0448034826953156  0.0008644616196580  0.3977545536036510
  0.0441231871093587  0.0004551217543263  0.8962836236519087
  0.0448034826953156  0.2491355313803451  0.3977535406036489
  0.0441231871093587  0.2495448782456737  0.8962826096519101
  0.9205718360720595  0.1250000000000000  0.3420325169647687
  0.9200436479287127  0.1250000000000000  0.8424753770220825
  0.9196516376262549  0.3738295770578051  0.3424259196867852
  0.9193544238707188  0.3740396403760497  0.8404007212975791
  0.9193634089390252  0.6250000000000000  0.3420269801476720
  0.9185014163956081  0.6250000000000000  0.8399757574215218
  0.9196516376262549  0.8761704229421946  0.3424259196867852
  0.9193544238707188  0.8759603596239500  0.8404007212975791
  0.8293574909880463  0.0001607471934312  0.1558437633967398
  0.8286875173260073  0.0001534225910108  0.6560695340412774
  0.8293574909880463  0.2498392508065687  0.1558437633967398
  0.8286875173260073  0.2498465814089894  0.6560695340412774
  0.8281797228442367  0.4997345140346114  0.1568965980334573
  0.8283321745605253  0.4997274197430542  0.6556507113157641
  0.8281797228442367  0.7502654559653937  0.1568965980334573
  0.8283321745605253  0.7502726102569485  0.6556507113157641
  0.9555463948972948 -0.0001553083237064  0.1019945536182126
  0.9545119358212748  0.0004471954985611  0.6020568396817608
  0.9555463948972948  0.2501553023237059  0.1019945536182126
  0.9545119358212748  0.2495528085014393  0.6020568396817608
  0.9500333088203363  0.4963607962499175  0.0987105637974669
  0.9544640571432609  0.5001334719656678  0.6022840764954852
  0.9500333088203363  0.7536392037500826  0.0987105637974669
  0.9544640571432609  0.7498665280343322  0.6022840764954852
  0.7954737177183822  0.1250000000000000  0.3970552624850535
  0.7950774508700369  0.1250000000000000  0.8972899184159250
  0.7947860515557752  0.3745918984471461  0.3972969256740248
  0.7949225390589443  0.3750602431081290  0.8972808178477465
  0.7945605481915817  0.6250000000000000  0.3976092689889978
  0.7947358228165757  0.6250000000000000  0.8977787279776527
  0.7947860515557752  0.8754080715528513  0.3972969256740248
  0.7949225390589443  0.8749397868918738  0.8972808178477465
  0.6712920452638268  0.0004191654629536  0.3425300171889418
  0.6713586302425955  0.0003280094320994  0.8433194911436476
  0.6712920452638268  0.2495808375370502  0.3425300171889418
  0.6713586302425955  0.2496719945679009  0.8433194911436476
  0.6712758705391357  0.4996284090729845  0.3426127058762180
  0.6710058318874644  0.4997825885632672  0.8433637291732886
  0.6712758705391357  0.7503715909270152  0.3426127058762180
  0.6710058318874644  0.7502174114367325  0.8433637291732886
  0.5799598924856861  0.1250000000000000  0.1574472595945696
  0.5801344157657566  0.1250000000000000  0.6577528903535053
  0.5801298871385074  0.3743799961595871  0.1571582173499776
  0.5803217387597884  0.3740158835560670  0.6585595490517557
  0.5803354637612798  0.6250000000000000  0.1574995426387742
  0.5802047264030361  0.6250000000000000  0.6584967150904845
  0.5801298871385074  0.8756200038404131  0.1571582173499776
  0.5803217387597884  0.8759841164439330  0.6585595490517557
  0.7056674597620134  0.1250000000000000  0.1028792146099371
  0.7050424226287600  0.1250000000000000  0.6023015032586384
  0.7053224618944174  0.3744142223784304  0.1024985368134581
  0.7049461756254394  0.3747255058691333  0.6023960015810115
  0.7049601754332323  0.6250000000000000  0.1023447789441584
  0.7047822869748925  0.6250000000000000  0.6023049126769753
  0.7053224618944174  0.8755857776215696  0.1024985368134581
  0.7049461756254394  0.8752744941308667  0.6023960015810115
  0.5464755650530272  0.0011944953437331  0.3980153127985688
  0.5459152150126969  0.0007827505814586  0.8980193809982171
  0.5464755650530272  0.2488055026562668  0.3980153127985688
  0.5459152150126969  0.2492172554185419  0.8980193809982171
  0.5479006814895497  0.4968303835103825  0.3994341985595160
  0.5455901857838434  0.5001419114364315  0.8985256545957547
  0.5479006814895497  0.7531696464896135  0.3994341985595160
  0.5455901857838434  0.7498581185635709  0.8985256545957547
  0.2436582022087811  0.5017577101259345  0.3556446227099402
  0.2516472150601808  0.4983357027535890  0.8690702083462174
  0.2436572192087814  0.7482422898740658  0.3556436097099381
  0.2516472150601808  0.7516642972464108  0.8690702083462174
  0.2521583604371705 -0.0036882646035435  0.3717812642109060
  0.2514055833845139  0.0007429782510427  0.8715199815692043
  0.2521583604371705  0.2536882646035433  0.3717802512109110
  0.2514055833845139  0.2492570157489569  0.8715189685692022
  0.4995548289071945  0.6250000000000000  0.1292306482020500
  0.4995572366081029  0.6250000000000000  0.6324327644099870
  0.4990309419171262  0.8760664177559299  0.1285725486999706
  0.4997779996342245  0.8770206410825158  0.6319208032533498
  0.4985244992509344  0.1250000000000000  0.1282315001062405
  0.4990171473546784  0.1250000000000000  0.6289050504956245
  0.4990309419171262  0.3739335522440677  0.1285715346999720
  0.4997779996342245  0.3729793589174840  0.6319198492533490
  0.4149480680548321  0.5018977581681506  0.2192246299147673
  0.4152010950342576  0.4965986865017262  0.7222736362352431
  0.4149490810548342  0.7481022418318494  0.2192246299147673
  0.4152010950342576  0.7534003304982666  0.7222746492352452
  0.4134538614442490  0.0000096206045669  0.2176531952665010
  0.4130101422314315  0.0001040053858434  0.7161948877342061
  0.4134538614442490  0.2499903863954302  0.2176521822664989
  0.4130101422314315  0.2498960236141555  0.7161938737342075
  0.3292478451680633  0.6250010130000021  0.2526967712268632
  0.3380323228732628  0.6250000000000000  0.7932201326176020
  0.3377262796156855  0.8728046845487952  0.2826634871075699
  0.3368535210346829  0.8762347372209263  0.7827948554209943
  0.3366026752616234  0.1250000000000000  0.2826302046149048
  0.3366398917507440  0.1250000000000000  0.7812781560358356
  0.3377262796156855  0.3771953154512043  0.2826615201075670
  0.3368535210346829  0.3737652627790736  0.7827938424209921
  0.3361359620720821  0.6250000000000000  0.0478678150587394
  0.3345622359832750  0.6250000000000000  0.5875826887802479
  0.3322301772105665  0.8772758395325942  0.0527469447603658
  0.3296319757089371  0.8721735202461942  0.5533208951131732
  0.3306588445619627  0.1250000000000000  0.0554741573543627
  0.3308788086278170  0.1250000000000000  0.5527515049276029
  0.3322301772105665  0.3727251444674091  0.0527459317603637
  0.3296319757089371  0.3778264797538054  0.5533198811131745
  0.4281188837519249  0.4973841089029707  0.4472239609709439
  0.4199601845566102  0.4980750588979076  0.9476994059483398
  0.4281188837519249  0.7526148780970277  0.4472249749709425
  0.4199601845566102  0.7519239581020931  0.9477004199483384
  0.4194383264795510  0.0003039115573448  0.4457575737532763
  0.4186831460116165  0.0004053873389409  0.9449301778070834
  0.4194383264795510  0.2496960894426518  0.4457555467532756
  0.4186831460116165  0.2495946116610626  0.9449291638070848
  0.0011864442962249  0.6250000000000000  0.3661576463379927
  0.9999789666971376  0.6250000000000000  0.8706952382261736
  0.0010400007263913  0.8769585936759869  0.3696063916114396
  0.0015137096362519  0.8747345463135950  0.8742084802515344
  0.0016786132953972  0.1250000000000000  0.3711267104786207
  0.0013098443949554  0.1250000000000000  0.8709125369566643
  0.0010400007263913  0.3730413763240107  0.3696053776114339
  0.0015137096362519  0.3752654236864031  0.8742074672515323
  0.2481237245380943  0.5070063362647944  0.1273343766767956
  0.2464931621501100  0.4987252009742081  0.6256352432942481
  0.2481237245380943  0.7429966437352034  0.1273323496768020
  0.2464931621501100  0.7512747990257915  0.6256352432942481
  0.2475396229161235  0.9978992562565783  0.1286941640329601
  0.2476571409637421  0.0003088704666616  0.6285425627282897
  0.2475396229161235  0.2521017277434178  0.1286930920329567
  0.2476571409637421  0.2496911295333385  0.6285415497282876
  0.1637639493903834  0.6250000000000000  0.2181502895835799
  0.1626833801046249  0.6250000000000000  0.7124906278530214
  0.1601073027759263  0.8746936947722986  0.2141784968836107
  0.1622362925928707  0.8761269475728410  0.7169983958630877
  0.1630702288105139  0.1249990020000027  0.2174303831797760
  0.1624767786034970  0.1250000000000000  0.7184826609463426
  0.1601083157759284  0.3753063052277012  0.2141774838836086
  0.1622362925928707  0.3738730524271586  0.7169983958630877
  0.0833387519993696  0.5001473817101839  0.2813803129534204
  0.0858989991464029  0.4996532866107987  0.7807535967015055
  0.0833377679993664  0.7498516052898140  0.2813813269534190
  0.0858989991464029  0.7503467133892016  0.7807546097015076
  0.0861758048811603  0.0006412531472266  0.2816551069738275
  0.0864050076044200  0.9996210959497531  0.7828450731064930
  0.0861758048811603  0.2493597298527731  0.2816540939738325
  0.0864050076044200  0.2503788740502439  0.7828440601064909
  0.0844192332230136  0.5135760085956410  0.0514668108503946
  0.0805418493949097  0.4990061195623673  0.5547948150047640
  0.0844192332230136  0.7364239914043590  0.0514668108503946
  0.0805418493949097  0.7509938804376329  0.5547948150047640
  0.0805895543135136 -0.0001181422938724  0.0532284260731847
  0.0808379521845844  0.0003241563670877  0.5548121360261665
  0.0805895543135136  0.2501181722938748  0.0532274130731826
  0.0808379521845844  0.2496758436329122  0.5548111230261715
  0.1625828276408008  0.6249989869999979  0.4437397015250848
  0.1684330843788864  0.6250000000000000  0.9305524892009688
  0.1646081323942513  0.8785498621600566  0.4466177806907172
  0.1683050097760504  0.8728209075517521  0.9464884462218527
  0.1683459898389753  0.1250000000000000  0.4454038929313619
  0.1675110809950410  0.1250000000000000  0.9470385631802115
  0.1646081323942513  0.3714501088399445  0.4466168276907130
  0.1683050097760504  0.3771790924482481  0.9464884462218527
  0.7525511909769764  0.0004908311872059  0.3717219654652217
  0.7525821772152984  0.0000437270215920  0.8719875714544869
  0.7525511909769764  0.2495091708127942  0.3717219654652217
  0.7525821772152984  0.2499562769784083  0.8719875714544869
  0.7523537728929645  0.4997621859953132  0.3716013694480201
  0.7523402768689829  0.4999641756936878  0.8720568878215579
  0.7523537728929645  0.7502378140046867  0.3716013694480201
  0.7523402768689829  0.7500358243063122  0.8720568878215579
  0.9982252524058817  0.1250000000000000  0.1280311957358472
  0.9977243459591130  0.1250000000000000  0.6286939404193955
  0.9983973639682391  0.3779034098124719  0.1245218559059817
  0.9972806425525393  0.3748618938576829  0.6291267047739987
  0.9908933780142579  0.6250000000000000  0.1211739197415263
  0.9977933197362209  0.6250000000000000  0.6275139850515963
  0.9983973639682391  0.8720966201875311  0.1245218559059817
  0.9972806425525393  0.8751381061423172  0.6291267047739987
  0.9136966566974235  0.9993909995923170  0.2169377367395861
  0.9131058563084758 -0.0002084241213570  0.7178196061621694
  0.9136966566974235  0.2506090304076780  0.2169377367395861
  0.9131058563084758  0.2502084201213566  0.7178196061621694
  0.9122281979906537  0.4989259126211930  0.2181538683471561
  0.9128084499171875  0.4999594825165466  0.7171285542356574
  0.9122281979906537  0.7510740873788072  0.2181538683471561
  0.9128084499171875  0.7500405174834528  0.7171285542356574
  0.8373899602666597  0.1250000000000000  0.2814880069311533
  0.8369481372037756  0.1250000000000000  0.7819408044308510
  0.8366721195042014  0.3746016237211528  0.2820074466302598
  0.8362953110804889  0.3745267996476884  0.7809339503808607
  0.8365749356786187  0.6250000000000000  0.2823919372043170
  0.8359831222589345  0.6250000000000000  0.7809085703989238
  0.8366721195042014  0.8753983762788471  0.2820074466302598
  0.8362953110804889  0.8754731703523165  0.7809339503808607
  0.8326481965707833  0.1250000000000000  0.0540165468571110
  0.8323750454099382  0.1250000000000000  0.5543523307498466
  0.8325507783217633  0.3754880716405852  0.0542372967509706
  0.8321874725074432  0.3749977621913412  0.5540363316089687
  0.8324303588895487  0.6250000000000000  0.0548560089534430
  0.8321303920376160  0.6250000000000000  0.5541482101529304
  0.8325507783217633  0.8745119283594150  0.0542372967509706
  0.8321874725074432  0.8750022678086543  0.5540363316089687
  0.9179988807970098  0.0004956830310647  0.4451009658758627
  0.9184831329775803 -0.0003051064049026  0.9453694593662926
  0.9179988807970098  0.2495043139689385  0.4451009658758627
  0.9184831329775803  0.2503051064049027  0.9453694593662926
  0.9191313759052766  0.4999419920885697  0.4447157057540010
  0.9161875851826690  0.4990594393532818  0.9419936960344462
  0.9191313759052766  0.7500580079114304  0.4447157057540010
  0.9161875851826690  0.7509405316467196  0.9419936960344462
  0.5029174999483007  0.1250000000000000  0.3716960731915089
  0.5023800330571303  0.1250000000000000  0.8712472989220358
  0.5041323758836870  0.3733447170162024  0.3700137552312721
  0.5034874899964704  0.3741978570608698  0.8735077350369893
  0.5081224841396547  0.6250000000000000  0.3710718263982900
  0.5025753221921164  0.6250000000000000  0.8739349532636085
  0.5041323758836870  0.8766552829837980  0.3700137552312721
  0.5034874899964704  0.8758021429391301  0.8735077350369893
  0.7487696450503472  0.0000229319823240  0.1280795293595613
  0.7481349154485866  0.0000773818382703  0.6278865288392568
  0.7487696450503472  0.2499770730176800  0.1280795293595613
  0.7481349154485866  0.2499226221617301  0.6278865288392568
  0.7480357812597119  0.4999920462657398  0.1281544253593932
  0.7478482651390878  0.4999643222087516  0.6276872610569383
  0.7480357812597119  0.7500079537342601  0.1281544253593932
  0.7478482651390878  0.7500356487912498  0.6276872610569383
  0.6643635421111754  0.1250000000000000  0.2181635325691792
  0.6642199615592588  0.1250000000000000  0.7186810477252582
  0.6642501466133668  0.3742688203096686  0.2181212067957353
  0.6640761089579087  0.3746896997908707  0.7188273505614747
  0.6640867568540395  0.6250000000000000  0.2183150087810186
  0.6638961270848696  0.6250000000000000  0.7186719085260697
  0.6642501466133668  0.8757311506903334  0.2181212067957353
  0.6640761089579087  0.8753103002091291  0.7188273505614747
  0.5879358785827310  0.0009700532243965  0.2820469672830789
  0.5878909638661343  0.0007775983179772  0.7830519104624984
  0.5879358785827310  0.2490299757756094  0.2820469672830789
  0.5878909638661343  0.2492224016820228  0.7830519104624984
  0.5883280008104184  0.4986510022686693  0.2819759891853438
  0.5876152001858823  0.4998249637578492  0.7834692305141179
  0.5883280008104184  0.7513489977313305  0.2819759891853438
  0.5876152001858823  0.7501750362421510  0.7834692305141179
  0.5829334739529631  0.0006116948598610  0.0548961240309148
  0.5832250979519195  0.0005145898890239  0.5552602241916599
  0.5829334739529631  0.2493883111401395  0.0548961240309148
  0.5832250979519195  0.2494854101109760  0.5552602241916599
  0.5829456614411477  0.4997770974480676  0.0552648751817700
  0.5832567594369955  0.4991520010675485  0.5567733314752594
  0.5829456614411477  0.7502229025519324  0.0552648751817700
  0.5832567594369955  0.7508479989324517  0.5567733314752594
  0.6687813248898327  0.1250000000000000  0.4453665374841095
  0.6692640977078717  0.1250000000000000  0.9459992906033338
  0.6687817150530360  0.3746827614586768  0.4452706184190449
  0.6690392924165899  0.3746928258318103  0.9456847080862860
  0.6686878980180763  0.6250000000000000  0.4451072318299029
  0.6689096088241866  0.6250000000000000  0.9455554341728798
  0.6687817150530360  0.8753172685413252  0.4452706184190449
  0.6690392924165899  0.8753071441681873  0.9456847080862860