Au1 Ga128 O192
   1.00000000000000
    24.9361379999999997    0.0000000000000000    0.0000000000000000
     0.0000000000000000   12.3494290000000007    0.0000000000000000
    -2.7833760000000001    0.0000000000000000   11.4316289999999992
   Au   Ga   O
     1   128   192
direct
0.347746 0.625000 0.432360 Au
0.201750 0.625000 0.620363 Ga
0.431711 0.625000 0.322571 Ga
0.421809 0.625000 0.840971 Ga
0.423778 0.876453 0.340537 Ga
0.422223 0.876534 0.842263 Ga
0.421923 0.125000 0.343975 Ga
0.420792 0.125000 0.842592 Ga
0.423778 0.373547 0.340537 Ga
0.422223 0.373466 0.842263 Ga
0.331390 0.750341 0.154759 Ga
0.327874 0.756033 0.671287 Ga
0.329813 0.000314 0.158510 Ga
0.328334 0.000771 0.655197 Ga
0.329813 0.249686 0.158510 Ga
0.328334 0.249229 0.655197 Ga
0.331390 0.499659 0.154759 Ga
0.327874 0.493967 0.671287 Ga
0.459059 0.752069 0.096712 Ga
0.457495 0.750353 0.602320 Ga
0.456213 0.000617 0.102103 Ga
0.455763 0.000056 0.602531 Ga
0.456213 0.249383 0.102103 Ga
0.455763 0.249944 0.602531 Ga
0.459059 0.497931 0.096712 Ga
0.457495 0.499647 0.602320 Ga
0.292922 0.625000 0.899445 Ga
0.295037 0.871111 0.396805 Ga
0.293244 0.875350 0.899173 Ga
0.293823 0.125000 0.395445 Ga
0.294776 0.125000 0.897575 Ga
0.295037 0.378889 0.396805 Ga
0.293244 0.374650 0.899173 Ga
0.163830 0.760727 0.336662 Ga
0.168847 0.750765 0.849925 Ga
0.170183 0.002058 0.342269 Ga
0.169836 0.000477 0.843481 Ga
0.170183 0.247942 0.342269 Ga
0.169836 0.249522 0.843481 Ga
0.163830 0.489273 0.336662 Ga
0.168847 0.499235 0.849925 Ga
0.077353 0.625000 0.156402 Ga
0.076411 0.625000 0.661384 Ga
0.076615 0.878374 0.153359 Ga
0.078339 0.875376 0.658427 Ga
0.077628 0.125000 0.156633 Ga
0.078332 0.125000 0.656921 Ga
0.076615 0.371626 0.153359 Ga
0.078339 0.374624 0.658427 Ga
0.205939 0.625000 0.110153 Ga
0.253461 0.625000 0.439356 Ga
0.205809 0.874720 0.105269 Ga
0.201915 0.877109 0.601997 Ga
0.205313 0.125000 0.103140 Ga
0.204452 0.125000 0.603305 Ga
0.205809 0.375280 0.105269 Ga
0.201915 0.372891 0.601997 Ga
0.042774 0.750278 0.401104 Ga
0.042850 0.750453 0.898869 Ga
0.044549 0.000248 0.397686 Ga
0.043332 0.000685 0.895942 Ga
0.044549 0.249752 0.397686 Ga
0.043332 0.249315 0.895942 Ga
0.042774 0.499722 0.401104 Ga
0.042850 0.499547 0.898869 Ga
0.919656 0.125000 0.842391 Ga
0.920436 0.125000 0.343546 Ga
0.919648 0.374741 0.842935 Ga
0.920048 0.374557 0.343306 Ga
0.919638 0.625000 0.843317 Ga
0.919685 0.625000 0.343412 Ga
0.919648 0.875259 0.842935 Ga
0.920048 0.875443 0.343306 Ga
0.829017 0.999994 0.656972 Ga
0.829335 0.000183 0.157490 Ga
0.829017 0.250006 0.656972 Ga
0.829335 0.249817 0.157490 Ga
0.828810 0.499962 0.657545 Ga
0.829326 0.499835 0.157398 Ga
0.828810 0.750038 0.657545 Ga
0.829326 0.750165 0.157398 Ga
0.954467 0.000031 0.602783 Ga
0.953521 0.000488 0.101984 Ga
0.954467 0.249969 0.602783 Ga
0.953521 0.249512 0.101984 Ga
0.953636 0.499446 0.603069 Ga
0.953925 0.499936 0.102770 Ga
0.953636 0.750554 0.603069 Ga
0.953925 0.750064 0.102770 Ga
0.795352 0.125000 0.898274 Ga
0.795426 0.125000 0.398054 Ga
0.795150 0.374892 0.898287 Ga
0.795377 0.374950 0.398190 Ga
0.795027 0.625000 0.898408 Ga
0.795321 0.625000 0.398413 Ga
0.795150 0.875108 0.898287 Ga
0.795377 0.875050 0.398190 Ga
0.671550 0.000297 0.843429 Ga
0.671882 0.000399 0.343144 Ga
0.671550 0.249703 0.843429 Ga
0.671882 0.249601 0.343144 Ga
0.671470 0.499765 0.843194 Ga
0.672001 0.499696 0.342458 Ga
0.671470 0.750235 0.843194 Ga
0.672001 0.750304 0.342458 Ga
0.580073 0.125000 0.658200 Ga
0.580766 0.125000 0.157279 Ga
0.580432 0.374094 0.658233 Ga
0.581441 0.373923 0.156366 Ga
0.580671 0.625000 0.657584 Ga
0.581343 0.625000 0.156446 Ga
0.580432 0.875906 0.658233 Ga
0.581441 0.876077 0.156366 Ga
0.705367 0.125000 0.602959 Ga
0.705703 0.125000 0.102515 Ga
0.705250 0.374844 0.602397 Ga
0.705963 0.374746 0.102056 Ga
0.705178 0.625000 0.601888 Ga
0.705908 0.625000 0.101847 Ga
0.705250 0.875156 0.602397 Ga
0.705963 0.875254 0.102056 Ga
0.545762 0.000640 0.897635 Ga
0.547193 0.001691 0.397768 Ga
0.545762 0.249360 0.897635 Ga
0.547193 0.248309 0.397768 Ga
0.546017 0.499892 0.896882 Ga
0.548977 0.496527 0.398160 Ga
0.546017 0.750108 0.896882 Ga
0.548977 0.753473 0.398160 Ga
0.243124 0.759071 0.367280 O
0.250213 0.750322 0.871636 O
0.251998 0.998194 0.371694 O
0.251282 0.000620 0.871915 O
0.251998 0.251806 0.371694 O
0.251282 0.249380 0.871915 O
0.243124 0.490929 0.367280 O
0.250213 0.499678 0.871636 O
0.500039 0.625000 0.125574 O
0.499681 0.625000 0.630932 O
0.500426 0.877752 0.125128 O
0.499095 0.876127 0.630099 O
0.499091 0.125000 0.128029 O
0.498331 0.125000 0.629069 O
0.500426 0.372248 0.125128 O
0.499095 0.373873 0.630099 O
0.418221 0.755215 0.212267 O
0.412405 0.748801 0.713696 O
0.413924 0.000329 0.217235 O
0.412512 0.999053 0.716308 O
0.413924 0.249671 0.217235 O
0.412512 0.250947 0.716308 O
0.418221 0.494785 0.212267 O
0.412405 0.501199 0.713696 O
0.347316 0.625000 0.262842 O
0.336990 0.625000 0.790135 O
0.338387 0.872099 0.283778 O
0.336360 0.875903 0.785431 O
0.337344 0.125000 0.282788 O
0.336345 0.125000 0.781245 O
0.338387 0.377901 0.283778 O
0.336360 0.374097 0.785431 O
0.332756 0.625000 0.050772 O
0.318170 0.625000 0.576050 O
0.331692 0.875738 0.054673 O
0.329532 0.871970 0.556064 O
0.331598 0.125000 0.054767 O
0.330781 0.125000 0.553024 O
0.331692 0.374262 0.054673 O
0.329532 0.378030 0.556064 O
0.427865 0.749197 0.440803 O
0.420018 0.751003 0.942056 O
0.419288 0.999343 0.445140 O
0.418565 0.000248 0.945044 O
0.419288 0.250657 0.445140 O
0.418565 0.249752 0.945044 O
0.427865 0.500803 0.440803 O
0.420018 0.498997 0.942056 O
0.000777 0.625000 0.373717 O
0.000811 0.625000 0.872587 O
0.001321 0.875685 0.372993 O
0.000752 0.875639 0.872027 O
0.001610 0.125000 0.372259 O
0.000483 0.125000 0.870118 O
0.001321 0.374315 0.372993 O
0.000752 0.374361 0.872027 O
0.249028 0.750021 0.131294 O
0.244404 0.750941 0.630039 O
0.248444 0.999970 0.130202 O
0.247001 0.999456 0.628364 O
0.248444 0.250030 0.130202 O
0.247001 0.250544 0.628364 O
0.249028 0.499979 0.131294 O
0.244404 0.499059 0.630039 O
0.160923 0.625000 0.220369 O
0.160016 0.625000 0.727707 O
0.160423 0.878337 0.214702 O
0.161778 0.875378 0.720012 O
0.162914 0.125000 0.217683 O
0.162483 0.125000 0.718153 O
0.160423 0.371663 0.214702 O
0.161778 0.374622 0.720012 O
0.084350 0.749075 0.284464 O
0.085449 0.750617 0.785385 O
0.085512 0.001196 0.280706 O
0.086033 0.000457 0.782831 O
0.085512 0.248804 0.280706 O
0.086033 0.249543 0.782831 O
0.084350 0.500925 0.284464 O
0.085449 0.499383 0.785385 O
0.079936 0.750815 0.055897 O
0.081889 0.748220 0.557107 O
0.080196 0.001672 0.052683 O
0.081045 0.999894 0.555137 O
0.080196 0.248328 0.052683 O
0.081045 0.250106 0.555137 O
0.079936 0.499185 0.055897 O
0.081889 0.501780 0.557107 O
0.176437 0.625000 0.452720 O
0.168173 0.625000 0.952564 O
0.163234 0.880064 0.446128 O
0.168068 0.876395 0.948693 O
0.168106 0.125000 0.445726 O
0.168169 0.125000 0.946495 O
0.163234 0.369936 0.446128 O
0.168068 0.373605 0.948693 O
0.752518 0.000131 0.872484 O
0.752668 0.000005 0.372455 O
0.752518 0.249869 0.872484 O
0.752668 0.249995 0.372455 O
0.752381 0.499920 0.872311 O
0.752620 0.499987 0.372179 O
0.752381 0.750080 0.872311 O
0.752620 0.750013 0.372179 O
0.997419 0.125000 0.628409 O
0.996613 0.125000 0.127500 O
0.997436 0.375369 0.628643 O
0.996594 0.374466 0.128495 O
0.996410 0.625000 0.629208 O
0.996881 0.625000 0.129190 O
0.997436 0.874631 0.628643 O
0.996594 0.875534 0.128495 O
0.912792 0.999749 0.717940 O
0.912943 0.000008 0.218812 O
0.912792 0.250251 0.717940 O
0.912943 0.249992 0.218812 O
0.912641 0.499944 0.718800 O
0.912989 0.499936 0.218928 O
0.912641 0.750056 0.718800 O
0.912989 0.750064 0.218928 O
0.836446 0.125000 0.781852 O
0.836839 0.125000 0.282474 O
0.836376 0.375104 0.782185 O
0.836723 0.375013 0.282458 O
0.836378 0.625000 0.782494 O
0.836677 0.625000 0.282621 O
0.836376 0.874896 0.782185 O
0.836723 0.874987 0.282458 O
0.832007 0.125000 0.555003 O
0.832489 0.125000 0.055094 O
0.831986 0.375260 0.555148 O
0.832267 0.374951 0.055130 O
0.831998 0.625000 0.555379 O
0.832218 0.625000 0.055228 O
0.831986 0.874740 0.555148 O
0.832267 0.875049 0.055130 O
0.917090 0.000155 0.945124 O
0.917713 0.000113 0.445973 O
0.917090 0.249845 0.945124 O
0.917713 0.249887 0.445973 O
0.917624 0.499882 0.945784 O
0.917733 0.499678 0.445902 O
0.917624 0.750118 0.945784 O
0.917733 0.750322 0.445902 O
0.502044 0.125000 0.871188 O
0.503048 0.125000 0.371753 O
0.502908 0.374638 0.870851 O
0.504983 0.373093 0.369675 O
0.502915 0.625000 0.870988 O
0.509376 0.625000 0.368069 O
0.502908 0.875362 0.870851 O
0.504983 0.876907 0.369675 O
0.748135 0.999947 0.628389 O
0.748630 0.000199 0.128265 O
0.748135 0.250053 0.628389 O
0.748630 0.249801 0.128265 O
0.747927 0.500020 0.628146 O
0.748541 0.499939 0.128237 O
0.747927 0.749980 0.628146 O
0.748541 0.750061 0.128237 O
0.663944 0.125000 0.718677 O
0.664611 0.125000 0.218409 O
0.663937 0.374502 0.718422 O
0.664641 0.374271 0.217706 O
0.663862 0.625000 0.717951 O
0.664473 0.625000 0.217428 O
0.663937 0.875498 0.718422 O
0.664641 0.875729 0.217706 O
0.587437 0.000505 0.782459 O
0.588329 0.001188 0.281669 O
0.587437 0.249495 0.782459 O
0.588329 0.248812 0.281669 O
0.587670 0.499668 0.782094 O
0.588810 0.498457 0.280308 O
0.587670 0.750332 0.782094 O
0.588810 0.751543 0.280308 O
0.582769 0.000748 0.555387 O
0.583480 0.001057 0.053795 O
0.582769 0.249252 0.555387 O
0.583480 0.248943 0.053795 O
0.582983 0.499016 0.555878 O
0.582889 0.499626 0.053612 O
0.582983 0.750984 0.555878 O
0.582889 0.750374 0.053612 O
0.668851 0.125000 0.945725 O
0.668746 0.125000 0.445872 O
0.668787 0.374852 0.945470 O
0.668524 0.374954 0.445221 O
0.668767 0.625000 0.945230 O
0.668414 0.625000 0.444710 O
0.668787 0.875148 0.945470 O
0.668524 0.875046 0.445221 O
