Co   Ga   O                             
   1.00000000000000     
    24.9361379999999997    0.0000000000000000    0.0000000000000000
     0.0000000000000000   12.3494290000000007    0.0000000000000000
    -2.7833760000000001    0.0000000000000000   11.4316289999999992
   Au   Ga   O 
     1   128   192
Direct
  0.1496159022597246  0.4999998637016863  0.4442550789352099
  0.0754856615852147  0.6239209286411036  0.1530355064784344
  0.0772881259620810  0.6264120824396532  0.6546981577502999
  0.0784095520906305  0.8748023490472100  0.1545221938771395
  0.0781317181270951  0.8757526596213351  0.6543969307189749
  0.0784096607160674  0.1251976707264732  0.1545215742763738
  0.0781316678937424  0.1242474994314711  0.6543954978767885
  0.0754857008628973  0.3760789565570739  0.1530354453704013
  0.0772880772675929  0.3735877540958988  0.6546963078729978
  0.1717937097090217  0.7562996305199181  0.3397906789482987
  0.1703654500103331  0.7517190784337716  0.8375452215633673
  0.1715743147608947  0.0000000152728555  0.3402398890444386
  0.1709064622426476  0.0000000464194865  0.8398316158220244
  0.1717938235017729  0.2437002390664420  0.3397899486336257
  0.1703654004610084  0.2482810820028746  0.8375429388497277
  0.1950197661198302  0.4999998844394041  0.2830560699491055
  0.1700179569080010  0.5000000688129237  0.8362513424787634
  0.0450311419221258  0.7511006005572179  0.3948401346142165
  0.0446220595708231  0.7498572826770240  0.8957579990756959
  0.0447241038951761  0.9999999507270131  0.3947403570706442
  0.0448543657274715  0.9999999136570756  0.8954152479220251
  0.0450309871027796  0.2488994301625675  0.3948383391109012
  0.0446222793526495  0.2501426585476665  0.8957569877026846
  0.0365423328516272  0.5000002287109588  0.3860140152504749
  0.0446459226231673  0.4999999375595400  0.8942906414489684
  0.2059461478055560  0.6319756457548326  0.0900144191906378
  0.2109455281144191  0.6290837903309134  0.6131058684071397
  0.2055893635011605  0.8767184442479764  0.0997207183727913
  0.2064846666759728  0.8757592673522148  0.6009212023941213
  0.2055893108190216  0.1232819282447790  0.0997193185506830
  0.2064848041800607  0.1242408789714602  0.6009203033785167
  0.2059461143008678  0.3680244359789215  0.0900132053907944
  0.2109457778414595  0.3709163622293856  0.6131055115806100
  0.3310001963030835  0.7514228411399586  0.1579858050915535
  0.3326865935429197  0.7528923287319828  0.6621473705878890
  0.3305969894815798  0.0000000893590965  0.1572238236841519
  0.3310604465506600  0.0000000363587205  0.6586966168640213
  0.3310002975397909  0.2485771570629336  0.1579839581470246
  0.3326867404867278  0.2471076089477247  0.6621454681610145
  0.3311285985698129  0.4999999519517739  0.1622311599079566
  0.3331713379906481  0.5000000467122591  0.6629717932557952
  0.4232934604164974  0.6251498311340646  0.3436157587661308
  0.4228645264094236  0.6253250101519090  0.8468113786386493
  0.4219429569565845  0.8751652282087069  0.3444396459550791
  0.4227645706989614  0.8755511641756334  0.8460329520091686
  0.4219429372431042  0.1248347053645811  0.3444387633832927
  0.4227646012806064  0.1244486356932022  0.8460317669261909
  0.4232934107801959  0.3748502394560670  0.3436149836188285
  0.4228644790419521  0.3746751130472611  0.8468104169951176
  0.3028516788572451  0.6310504930354545  0.4053204004697086
  0.2956604471221391  0.6246973503002561  0.8983175555236019
  0.2963937467132793  0.8757346941326380  0.3985968558770963
  0.2954171622489829  0.8749355174381047  0.8972430928527806
  0.2963937161934925  0.1242650928277460  0.3985956529131383
  0.2954172131562467  0.1250645728506771  0.8972420531087710
  0.3028516368197288  0.3689495505489923  0.4053198302639224
  0.2956604885466328  0.3753028046846684  0.8983168380913368
  0.4570804567655479  0.7503881879167782  0.1044707656103865
  0.4560806260750857  0.7500648574475992  0.6037033018851461
  0.4565561290520953  0.0000000853128010  0.1047334590578119
  0.4559637604597882 -0.0000000354578328  0.6037620564932583
  0.4570803714031930  0.2496117195755451  0.1044694731873322
  0.4560807284512740  0.2499351599115140  0.6037023400974378
  0.4572098226410118  0.4999998436249228  0.1044858234663068
  0.4561638588019673  0.4999999819587350  0.6034835144905033
  0.5804825895936027  0.1248359280741225  0.1585526920801669
  0.5799760071966144  0.1249134278632257  0.6581042788026567
  0.5805727871725264  0.3748887269868924  0.1583985337345654
  0.5800605259692753  0.3749153959322654  0.6583845547667007
  0.5805727838995259  0.6251111417217893  0.1583989859962052
  0.5800605711961069  0.6250845004530622  0.6583850530504135
  0.5804825620726651  0.8751641680858552  0.1585533139909649
  0.5799759562771245  0.8750865411699084  0.6581047475623638
  0.6713464130609692  0.9999999945677379  0.3440782730230437
  0.6712482625906703  0.9999999184918533  0.8433339326632399
  0.6714147459727804  0.2498776223154071  0.3438780193384510
  0.6713325257409333  0.2499801928504055  0.8433683449616826
  0.6714372012360473  0.5000000015854342  0.3438172399771379
  0.6714194526280237  0.4999999725007979  0.8433865390127662
  0.6714147521686717  0.7501223547532123  0.3438787764005635
  0.6713325155605839  0.7500197367216297  0.8433688667635344
  0.5457365521939854  0.0000000032233338  0.3984737405784624
  0.5464201879741581  0.9999998194904162  0.8991173597899009
  0.5463089440956989  0.2495974669539817  0.3987326983815017
  0.5463809843840481  0.2498947692482441  0.8989498882789816
  0.5466882633934379  0.5000001007952540  0.3989730220839162
  0.5463856763664106  0.4999999822920733  0.8989255007120974
  0.5463089500910309  0.7504025334230515  0.3987335081561942
  0.5463810246775989  0.7501051177585226  0.8989507261301599
  0.7050586133443031  0.1248692269169785  0.1026157748581732
  0.7052476684199683  0.1250483991812141  0.6029195030033986
  0.7051893958249252  0.3749995122903894  0.1026023311803245
  0.7053213581464146  0.3749559887320682  0.6030015467396126
  0.7051893448572275  0.6250003877508760  0.1026027594530145
  0.7053213774852761  0.6250439631461847  0.6030019704061421
  0.7050585204943772  0.8751307493441659  0.1026160703771333
  0.7052477017300782  0.8749515846528372  0.6029199383163050
  0.8288623051006485 -0.0000000408282563  0.1562368004683673
  0.8288525078933308  0.0000000099260028  0.6565235161324937
  0.8285548868976107  0.2492839375180380  0.1558427184549221
  0.8291128957273940  0.2498465264924181  0.6564614410676158
  0.8287823575880016  0.4999999536146231  0.1559696738292290
  0.8290306619416280  0.4999998355289811  0.6567142344287604
  0.8285548640441553  0.7507160551858104  0.1558446178243243
  0.8291129482039591  0.7501533273012635  0.6564626555573757
  0.9203355963944010  0.1245606659639164  0.3410451479917072
  0.9204421079384616  0.1246452506671062  0.8409587960792742
  0.9188108823908581  0.3734092299264951  0.3412599101341056
  0.9203526858579564  0.3747395933027177  0.8412354932710495
  0.9188108217137180  0.6265907871150213  0.3412625074892456
  0.9203526265226857  0.6252604915419788  0.8412370237249536
  0.9203355919261014  0.8754392304661245  0.3410465608330777
  0.9204420255230231  0.8753546241844067  0.8409603468258828
  0.7951547139007529  0.1248028831424464  0.3971344321561502
  0.7950120838506138  0.1248869017350384  0.8965868112957838
  0.7948040090984746  0.3748551388923280  0.3975905068674820
  0.7951717961272573  0.3749126740232577  0.8969458969849194
  0.7948038996081054  0.6251448894468051  0.3975914111601244
  0.7951717872991434  0.6250875119510770  0.8969468334730557
  0.7951546977348463  0.8751970842123656  0.3971354875215979
  0.7950120729030423  0.8751132336672893  0.8965873914906199
  0.9546810668490935  0.0000000912315144  0.1010794664380300
  0.9540654774778720  0.0000000939455945  0.6008502583795350
  0.9529657288896759  0.2482979390761846  0.0998314615679175
  0.9542800765582476  0.2492516431722488  0.6007920253748084
  0.9530414939308512  0.4999999743475432  0.0996497223952750
  0.9540206961429841  0.4999998171292461  0.6011682654133370
  0.9529656634449556  0.7517021206360531  0.0998338645454634
  0.9542802255638816  0.7507483416105564  0.6007942921243946
  0.2492747887734056  0.7528596812120706  0.1277046986043517
  0.2522322675158142  0.7542715078223842  0.6347146722412489
  0.2490195023908819  0.0000002518653270  0.1269644739833843
  0.2497427295741270  0.0000000363847295  0.6290409705166795
  0.2492748181095423  0.2471405674389015  0.1277033952460957
  0.2522324319072954  0.2457285669443286  0.6347139031060627
  0.2428147164540404  0.4999999047813634  0.1429467989215394
  0.2525425498053312  0.5000001854544900  0.6348767838559496
  0.9995701287945420  0.6295409940867731  0.3675711397487203
  0.0019060446390050  0.6249141405602580  0.8699075880768763
  0.0018942491611786  0.8754451212746271  0.3687917101581958
  0.0021805687954240  0.8750251160714041  0.8707366346520963
  0.0018942687965273  0.1245548415634753  0.3687908758053934
  0.0021807313784192  0.1249748724345271  0.8707359934379751
  0.9995702332824034  0.3704592340353341  0.3675701363779431
  0.0019061218073087  0.3750856768241619  0.8699067692374058
  0.0871042269443193  0.7493710340393094  0.2791369663807045
  0.0866915869109375  0.7501707112852557  0.7803281586186954
  0.0871334120124705  0.0000001512587582  0.2797620319680144
  0.0871281737369217 -0.0000000175795365  0.7801311968615819
  0.0871043645040732  0.2506291117132026  0.2791360588731033
  0.0866915540218788  0.2498293257163132  0.7803266397698766
  0.0746089317237449  0.4999999834696398  0.2624166689601364
  0.0863187078911427  0.5000000463383620  0.7777662034532159
  0.1654930002911437  0.6306736590130158  0.2119067894200023
  0.1634008815846113  0.6242789788392016  0.7160897723072425
  0.1639263670875459  0.8752443067803758  0.2156316859160711
  0.1634614312417692  0.8744366804434016  0.7145706690222490
  0.1639265026795566  0.1247558267510053  0.2156309153177789
  0.1634614278993254  0.1255634662355649  0.7145695961501385
  0.1654929594836380  0.3693264825524807  0.2119058607099067
  0.1634008709835486  0.3757210923578665  0.7160888531275825
  0.1650481401612083  0.6605170653461367  0.4639626046985827
  0.1675046338721433  0.6255380016777993  0.9388927897350130
  0.1701285323661343  0.8790688847066466  0.4440050086281337
  0.1685369572432009  0.8750634381870238  0.9430608094888152
  0.1701285147285954  0.1209313506859035  0.4440043086255865
  0.1685367274754477  0.1249370791660394  0.9430595985629029
  0.1650484410799053  0.3394828701951857  0.4639620419089682
  0.1675045433534768  0.3744617620477329  0.9388916711898074
  0.0819097228430454  0.7488676102473356  0.0531431606416904
  0.0788177605857627  0.7508818857038283  0.5533325817311437
  0.0821659949860286  0.9999998681445943  0.0527625310441788
  0.0814806854836864  0.9999998304263931  0.5521893029221022
  0.0819096765014435  0.2511323282931497  0.0531424688969347
  0.0788177024570615  0.2491182321018995  0.5533312224487510
  0.0834839951717335  0.5000000438408558  0.0502620833165165
  0.0756699233323318  0.5000001900007208  0.5487103680792010
  0.4994335075965613  0.6251728424449111  0.1303819443994912
  0.4986449848963823  0.6250282799344318  0.6289966835259991
  0.4993708449045252  0.8753615424233894  0.1303731921649735
  0.4986641162585419  0.8749858409930283  0.6288556538548427
  0.4993708732632054  0.1246385510448122  0.1303729036602514
  0.4986641743285106  0.1250140639922116  0.6288553254974106
  0.4994335677913076  0.3748268305797897  0.1303816067638750
  0.4986450621139263  0.3749717057160690  0.6289961691115259
  0.2542975164237992  0.7485115920882327  0.3735941684540607
  0.2523576214936867  0.7495175473446261  0.8724073531849531
  0.2533668463972379  0.9999998499815448  0.3695574799297799
  0.2523583324739456  0.0000000518474879  0.8709939900399617
  0.2542975744321113  0.2514882931088523  0.3735934161169117
  0.2523576528728587  0.2504825537016273  0.8724065789323574
  0.2637940305563099  0.5000000126479681  0.3848530219900029
  0.2519733864491565  0.5000000278942844  0.8752512995989684
  0.3388729228381481  0.6257926187509198  0.2823955377925380
  0.3387534305255734  0.6252504360468373  0.7865478091932866
  0.3378827674961173  0.8747419748521312  0.2824176350724884
  0.3386511064269843  0.8759649560903112  0.7847283951774640
  0.3378827718928982  0.1252579929812083  0.2824166814222342
  0.3386510927657835  0.1240350744502276  0.7847273312617304
  0.3388728630284931  0.3742070611047845  0.2823950500521085
  0.3387534388523024  0.3747497194212380  0.7865470071573654
  0.4143982698445454  0.7497263986827976  0.2181877905363676
  0.4153029535034194  0.7509819593792737  0.7212806680543788
  0.4140748364475227  0.0000000043287425  0.2187383769409501
  0.4146213706443824 -0.0000000000413265  0.7198052999735047
  0.4143982544834720  0.2502733946746394  0.2181867768220545
  0.4153029509364776  0.2490179203591670  0.7212796257452357
  0.4146197723831519  0.4999997902502888  0.2186303729934292
  0.4154022149841447  0.5000000905011804  0.7214089116801208
  0.4184987883930639  0.7493603041546101  0.4463132055244456
  0.4194024652842306  0.7501048266987310  0.9481526566490733
  0.4189103751409289  0.0000002120061909  0.4464308287903508
  0.4198214745932585  0.0000001695196284  0.9478648444540627
  0.4184987242748872  0.2506397727262303  0.4463123544365619
  0.4194024198785542  0.2498951255396683  0.9481514797157136
  0.4186671407728094  0.4999999559914776  0.4460913548618468
  0.4193778151934304  0.4999998343113345  0.9483864043797765
  0.3289690855825518  0.6230059583601991  0.0573121067404604
  0.3360812929066206  0.6270491709142095  0.5618280424800558
  0.3326258023967165  0.8750781907115179  0.0542852607999105
  0.3337814627008360  0.8757165104245735  0.5553827573501906
  0.3326258472338865  0.1249216107837596  0.0542842988695871
  0.3337814904306228  0.1242831917866406  0.5553816229256037
  0.3289692669704485  0.3769942364875037  0.0573114599692325
  0.3360813609246884  0.3729511493357424  0.5618272665070532
  0.7478774765441288  0.9999999895294069  0.1279124610517680
  0.7479482915442990  0.0000000431737136  0.6281445749785088
  0.7478694302875565  0.2498774859702204  0.1280539237688615
  0.7481192627933027  0.2499739610115013  0.6282163112323289
  0.7480012088022633  0.4999999255739974  0.1281698545654190
  0.7480976722885021  0.4999999750972302  0.6282803325063523
  0.7478693374214967  0.7501224752121943  0.1280547823739581
  0.7481193255713010  0.7500258812361805  0.6282169633520304
  0.5027207626280998  0.1252319034802424  0.3728861527791482
  0.5034277342343523  0.1249223784331805  0.8737011163096996
  0.5034638764704635  0.3750760230160045  0.3731667995641678
  0.5033844091007310  0.3749573090491705  0.8738280393517677
  0.5034639242941963  0.6249241709126564  0.3731671203744388
  0.5033844218588942  0.6250426662879039  0.8738285854236684
  0.5027207803857008  0.8747680928376667  0.3728865046642451
  0.5034276945147438  0.8750774864633242  0.8737013942581413
  0.5874178203785289  0.0000000266494171  0.2833056447286718
  0.5873007569952809  0.9999999280679558  0.7826024504984307
  0.5875571616432649  0.2499472890820857  0.2830988135543748
  0.5873193308183514  0.2501180466790214  0.7826520385262099
  0.5876698313205108  0.4999999528944951  0.2830357876992557
  0.5873394869713855  0.4999999336346109  0.7827077633875471
  0.5875571826369359  0.7500526944997277  0.2830993402747440
  0.5873193657150712  0.7498818752239296  0.7826526883425222
  0.6638334264593726  0.1249781682319163  0.2188152090987391
  0.6636174724182266  0.1250509327269052  0.7183939784915014
  0.6639102060912655  0.3749685747734114  0.2186883240341056
  0.6637193577937593  0.3750191084417386  0.7185049321954265
  0.6639102045026627  0.6250313750169407  0.2186887672687606
  0.6637193838910038  0.6249807634221751  0.7185054300841812
  0.6638334195103375  0.8750217996441119  0.2188156747167489
  0.6636175638825752  0.8749489563286283  0.7183944310140157
  0.6683405051374480  0.1250556912969377  0.4460415551677402
  0.6682725872920127  0.1250519478530685  0.9456012632589206
  0.6685055237410356  0.3749880635814113  0.4459916043137069
  0.6683861833794951  0.3750515549685047  0.9456461832316675
  0.6685055184275381  0.6250118207552011  0.4459920455939407
  0.6683861911597179  0.6249483813225640  0.9456465661734943
  0.6683405824732110  0.8749442739262818  0.4460418906724950
  0.6682725547220344  0.8749479656327903  0.9456015127376934
  0.5829725315954458  0.9999999104405582  0.0560006691096498
  0.5822269241160525  0.9999998998612221  0.5554349441969373
  0.5827415279310693  0.2499027874749621  0.0559576459924829
  0.5823959380454408  0.2499832608820438  0.5557501071228357
  0.5827166121588008  0.5000000205863996  0.0559486804655946
  0.5824911760979312  0.5000000462412615  0.5560138877788372
  0.5827415674995500  0.7500971384186651  0.0559583314478313
  0.5823959726714665  0.7500166946480622  0.5557507394062664
  0.9975978880217126  0.1251392411676057  0.1262377399349154
  0.9972798292578164  0.1243308239196660  0.6275327879444937
  0.9949873824359016  0.3735143352464276  0.1209758014875023
  0.9967254003879159  0.3747026304488625  0.6273395533919071
  0.9949873097003415  0.6264856190184356  0.1209766265432367
  0.9967254034939877  0.6252971300707544  0.6273407105389363
  0.9975978030032481  0.8748609324856523  0.1262383252374187
  0.9972798484398843  0.8756693908039612  0.6275337927069485
  0.7521941219549446 -0.0000000305387247  0.3719843679514220
  0.7520992278721277 -0.0000000354384561  0.8714105997389006
  0.7522552301337834  0.2497545426466685  0.3719304927810675
  0.7522565661163877  0.2500121732526763  0.8717645219177140
  0.7522162704118102  0.4999999922304821  0.3719329094302573
  0.7523814928464555  0.5000000650268250  0.8718646507302907
  0.7522552031133184  0.7502454909034636  0.3719313108907904
  0.7522564870436618  0.7499878309347003  0.8717650924606980
  0.8363912960137629  0.1244485982177088  0.2810645686854444
  0.8365423033122299  0.1246429187169102  0.7810592823430214
  0.8361830728605688  0.3748724708115551  0.2814665867556866
  0.8365679316415536  0.3747480968223051  0.7810880409790343
  0.8361831688392316  0.6251274697529550  0.2814678984175015
  0.8365679422864770  0.6252517477996933  0.7810890086019773
  0.8363913026188969  0.8755515238961383  0.2810656576387141
  0.8365423468355367  0.8753570511274437  0.7810602631820838
  0.9130510117692848  0.9999999984775340  0.2163858584895197
  0.9129930067061576 -0.0000000179322819  0.7170352754976290
  0.9121692018089309  0.2485890199040687  0.2162839391591065
  0.9130476397916754  0.2496823939527348  0.7167757447084371
  0.9126421207393854  0.4999999368573810  0.2168950471701318
  0.9128836677194356  0.4999999994085366  0.7168171878937266
  0.9121691418992673  0.7514109700809851  0.2162859560395723
  0.9130476631328543  0.7503174364957842  0.7167775885854943
  0.9180729147435422  0.0000001768040252  0.4436662595194460
  0.9183311545587801  0.0000003653901659  0.9440401948788777
  0.9172778258272651  0.2486546695379591  0.4441372270472032
  0.9173320825162619  0.2490286383197089  0.9426346800973879
  0.9188404781771242  0.4999995716383900  0.4433980631081211
  0.9171728325934230  0.4999997374953168  0.9424752599094185
  0.9172777699371769  0.7513453916782266  0.4441392552548589
  0.9173322012495739  0.7509713298930503  0.9426368393941195
  0.8316852173702518  0.1246963893584435  0.0536085650710463
  0.8318835039482375  0.1248337404824407  0.5541361495344582
  0.8318034095953865  0.3747781328626342  0.0541707149671835
  0.8320173939523422  0.3750791865698155  0.5541658825657675
  0.8318033963153953  0.6252221594170738  0.0541717739832230
  0.8320174597841261  0.6249207213896821  0.5541666153974805
  0.8316851901479654  0.8753032892422015  0.0536095638202574
  0.8318835295627919  0.8751659528504793  0.5541370676147487
 
  0.00000000E+00  0.00000000E+00  0.00000000E+00
  0.00000000E+00  0.00000000E+00  0.00000000E+00
  0.00000000E+00  0.00000000E+00  0.00000000E+00
  0.00000000E+00  0.00000000E+00  0.00000000E+00
  0.00000000E+00  0.00000000E+00  0.00000000E+00
  0.00000000E+00  0.00000000E+00  0.00000000E+00
  0.00000000E+00  0.00000000E+00  0.00000000E+00
  0.00000000E+00  0.00000000E+00  0.00000000E+00
  0.00000000E+00  0.00000000E+00  0.00000000E+00
  0.00000000E+00  0.00000000E+00  0.00000000E+00
  0.00000000E+00  0.00000000E+00  0.00000000E+00
  0.00000000E+00  0.00000000E+00  0.00000000E+00
  0.00000000E+00  0.00000000E+00  0.00000000E+00
  0.00000000E+00  0.00000000E+00  0.00000000E+00
  0.00000000E+00  0.00000000E+00  0.00000000E+00
  0.00000000E+00  0.00000000E+00  0.00000000E+00
  0.00000000E+00  0.00000000E+00  0.00000000E+00
  0.00000000E+00  0.00000000E+00  0.00000000E+00
  0.00000000E+00  0.00000000E+00  0.00000000E+00
  0.00000000E+00  0.00000000E+00  0.00000000E+00
  0.00000000E+00  0.00000000E+00  0.00000000E+00
  0.00000000E+00  0.00000000E+00  0.00000000E+00
  0.00000000E+00  0.00000000E+00  0.00000000E+00
  0.00000000E+00  0.00000000E+00  0.00000000E+00
  0.00000000E+00  0.00000000E+00  0.00000000E+00
  0.00000000E+00  0.00000000E+00  0.00000000E+00
  0.00000000E+00  0.00000000E+00  0.00000000E+00
  0.00000000E+00  0.00000000E+00  0.00000000E+00
  0.00000000E+00  0.00000000E+00  0.00000000E+00
  0.00000000E+00  0.00000000E+00  0.00000000E+00
  0.00000000E+00  0.00000000E+00  0.00000000E+00
  0.00000000E+00  0.00000000E+00  0.00000000E+00
  0.00000000E+00  0.00000000E+00  0.00000000E+00
  0.00000000E+00  0.00000000E+00  0.00000000E+00
  0.00000000E+00  0.00000000E+00  0.00000000E+00
  0.00000000E+00  0.00000000E+00  0.00000000E+00
  0.00000000E+00  0.00000000E+00  0.00000000E+00
  0.00000000E+00  0.00000000E+00  0.00000000E+00
  0.00000000E+00  0.00000000E+00  0.00000000E+00
  0.00000000E+00  0.00000000E+00  0.00000000E+00
  0.00000000E+00  0.00000000E+00  0.00000000E+00
  0.00000000E+00  0.00000000E+00  0.00000000E+00
  0.00000000E+00  0.00000000E+00  0.00000000E+00
  0.00000000E+00  0.00000000E+00  0.00000000E+00
  0.00000000E+00  0.00000000E+00  0.00000000E+00
  0.00000000E+00  0.00000000E+00  0.00000000E+00
  0.00000000E+00  0.00000000E+00  0.00000000E+00
  0.00000000E+00  0.00000000E+00  0.00000000E+00
  0.00000000E+00  0.00000000E+00  0.00000000E+00
  0.00000000E+00  0.00000000E+00  0.00000000E+00
  0.00000000E+00  0.00000000E+00  0.00000000E+00
  0.00000000E+00  0.00000000E+00  0.00000000E+00
  0.00000000E+00  0.00000000E+00  0.00000000E+00
  0.00000000E+00  0.00000000E+00  0.00000000E+00
  0.00000000E+00  0.00000000E+00  0.00000000E+00
  0.00000000E+00  0.00000000E+00  0.00000000E+00
  0.00000000E+00  0.00000000E+00  0.00000000E+00
  0.00000000E+00  0.00000000E+00  0.00000000E+00
  0.00000000E+00  0.00000000E+00  0.00000000E+00
  0.00000000E+00  0.00000000E+00  0.00000000E+00
  0.00000000E+00  0.00000000E+00  0.00000000E+00
  0.00000000E+00  0.00000000E+00  0.00000000E+00
  0.00000000E+00  0.00000000E+00  0.00000000E+00
  0.00000000E+00  0.00000000E+00  0.00000000E+00
  0.00000000E+00  0.00000000E+00  0.00000000E+00
  0.00000000E+00  0.00000000E+00  0.00000000E+00
  0.00000000E+00  0.00000000E+00  0.00000000E+00
  0.00000000E+00  0.00000000E+00  0.00000000E+00
  0.00000000E+00  0.00000000E+00  0.00000000E+00
  0.00000000E+00  0.00000000E+00  0.00000000E+00
  0.00000000E+00  0.00000000E+00  0.00000000E+00
  0.00000000E+00  0.00000000E+00  0.00000000E+00
  0.00000000E+00  0.00000000E+00  0.00000000E+00
  0.00000000E+00  0.00000000E+00  0.00000000E+00
  0.00000000E+00  0.00000000E+00  0.00000000E+00
  0.00000000E+00  0.00000000E+00  0.00000000E+00
  0.00000000E+00  0.00000000E+00  0.00000000E+00
  0.00000000E+00  0.00000000E+00  0.00000000E+00
  0.00000000E+00  0.00000000E+00  0.00000000E+00
  0.00000000E+00  0.00000000E+00  0.00000000E+00
  0.00000000E+00  0.00000000E+00  0.00000000E+00
  0.00000000E+00  0.00000000E+00  0.00000000E+00
  0.00000000E+00  0.00000000E+00  0.00000000E+00
  0.00000000E+00  0.00000000E+00  0.00000000E+00
  0.00000000E+00  0.00000000E+00  0.00000000E+00
  0.00000000E+00  0.00000000E+00  0.00000000E+00
  0.00000000E+00  0.00000000E+00  0.00000000E+00
  0.00000000E+00  0.00000000E+00  0.00000000E+00
  0.00000000E+00  0.00000000E+00  0.00000000E+00
  0.00000000E+00  0.00000000E+00  0.00000000E+00
  0.00000000E+00  0.00000000E+00  0.00000000E+00
  0.00000000E+00  0.00000000E+00  0.00000000E+00
  0.00000000E+00  0.00000000E+00  0.00000000E+00
  0.00000000E+00  0.00000000E+00  0.00000000E+00
  0.00000000E+00  0.00000000E+00  0.00000000E+00
  0.00000000E+00  0.00000000E+00  0.00000000E+00
  0.00000000E+00  0.00000000E+00  0.00000000E+00
  0.00000000E+00  0.00000000E+00  0.00000000E+00
  0.00000000E+00  0.00000000E+00  0.00000000E+00
  0.00000000E+00  0.00000000E+00  0.00000000E+00
  0.00000000E+00  0.00000000E+00  0.00000000E+00
  0.00000000E+00  0.00000000E+00  0.00000000E+00
  0.00000000E+00  0.00000000E+00  0.00000000E+00
  0.00000000E+00  0.00000000E+00  0.00000000E+00
  0.00000000E+00  0.00000000E+00  0.00000000E+00
  0.00000000E+00  0.00000000E+00  0.00000000E+00
  0.00000000E+00  0.00000000E+00  0.00000000E+00
  0.00000000E+00  0.00000000E+00  0.00000000E+00
  0.00000000E+00  0.00000000E+00  0.00000000E+00
  0.00000000E+00  0.00000000E+00  0.00000000E+00
  0.00000000E+00  0.00000000E+00  0.00000000E+00
  0.00000000E+00  0.00000000E+00  0.00000000E+00
  0.00000000E+00  0.00000000E+00  0.00000000E+00
  0.00000000E+00  0.00000000E+00  0.00000000E+00
  0.00000000E+00  0.00000000E+00  0.00000000E+00
  0.00000000E+00  0.00000000E+00  0.00000000E+00
  0.00000000E+00  0.00000000E+00  0.00000000E+00
  0.00000000E+00  0.00000000E+00  0.00000000E+00
  0.00000000E+00  0.00000000E+00  0.00000000E+00
  0.00000000E+00  0.00000000E+00  0.00000000E+00
  0.00000000E+00  0.00000000E+00  0.00000000E+00
  0.00000000E+00  0.00000000E+00  0.00000000E+00
  0.00000000E+00  0.00000000E+00  0.00000000E+00
  0.00000000E+00  0.00000000E+00  0.00000000E+00
  0.00000000E+00  0.00000000E+00  0.00000000E+00
  0.00000000E+00  0.00000000E+00  0.00000000E+00
  0.00000000E+00  0.00000000E+00  0.00000000E+00
  0.00000000E+00  0.00000000E+00  0.00000000E+00
  0.00000000E+00  0.00000000E+00  0.00000000E+00
  0.00000000E+00  0.00000000E+00  0.00000000E+00
  0.00000000E+00  0.00000000E+00  0.00000000E+00
  0.00000000E+00  0.00000000E+00  0.00000000E+00
  0.00000000E+00  0.00000000E+00  0.00000000E+00
  0.00000000E+00  0.00000000E+00  0.00000000E+00
  0.00000000E+00  0.00000000E+00  0.00000000E+00
  0.00000000E+00  0.00000000E+00  0.00000000E+00
  0.00000000E+00  0.00000000E+00  0.00000000E+00
  0.00000000E+00  0.00000000E+00  0.00000000E+00
  0.00000000E+00  0.00000000E+00  0.00000000E+00
  0.00000000E+00  0.00000000E+00  0.00000000E+00
  0.00000000E+00  0.00000000E+00  0.00000000E+00
  0.00000000E+00  0.00000000E+00  0.00000000E+00
  0.00000000E+00  0.00000000E+00  0.00000000E+00
  0.00000000E+00  0.00000000E+00  0.00000000E+00
  0.00000000E+00  0.00000000E+00  0.00000000E+00
  0.00000000E+00  0.00000000E+00  0.00000000E+00
  0.00000000E+00  0.00000000E+00  0.00000000E+00
  0.00000000E+00  0.00000000E+00  0.00000000E+00
  0.00000000E+00  0.00000000E+00  0.00000000E+00
  0.00000000E+00  0.00000000E+00  0.00000000E+00
  0.00000000E+00  0.00000000E+00  0.00000000E+00
  0.00000000E+00  0.00000000E+00  0.00000000E+00
  0.00000000E+00  0.00000000E+00  0.00000000E+00
  0.00000000E+00  0.00000000E+00  0.00000000E+00
  0.00000000E+00  0.00000000E+00  0.00000000E+00
  0.00000000E+00  0.00000000E+00  0.00000000E+00
  0.00000000E+00  0.00000000E+00  0.00000000E+00
  0.00000000E+00  0.00000000E+00  0.00000000E+00
  0.00000000E+00  0.00000000E+00  0.00000000E+00
  0.00000000E+00  0.00000000E+00  0.00000000E+00
  0.00000000E+00  0.00000000E+00  0.00000000E+00
  0.00000000E+00  0.00000000E+00  0.00000000E+00
  0.00000000E+00  0.00000000E+00  0.00000000E+00
  0.00000000E+00  0.00000000E+00  0.00000000E+00
  0.00000000E+00  0.00000000E+00  0.00000000E+00
  0.00000000E+00  0.00000000E+00  0.00000000E+00
  0.00000000E+00  0.00000000E+00  0.00000000E+00
  0.00000000E+00  0.00000000E+00  0.00000000E+00
  0.00000000E+00  0.00000000E+00  0.00000000E+00
  0.00000000E+00  0.00000000E+00  0.00000000E+00
  0.00000000E+00  0.00000000E+00  0.00000000E+00
  0.00000000E+00  0.00000000E+00  0.00000000E+00
  0.00000000E+00  0.00000000E+00  0.00000000E+00
  0.00000000E+00  0.00000000E+00  0.00000000E+00
  0.00000000E+00  0.00000000E+00  0.00000000E+00
  0.00000000E+00  0.00000000E+00  0.00000000E+00
  0.00000000E+00  0.00000000E+00  0.00000000E+00
  0.00000000E+00  0.00000000E+00  0.00000000E+00
  0.00000000E+00  0.00000000E+00  0.00000000E+00
  0.00000000E+00  0.00000000E+00  0.00000000E+00
  0.00000000E+00  0.00000000E+00  0.00000000E+00
  0.00000000E+00  0.00000000E+00  0.00000000E+00
  0.00000000E+00  0.00000000E+00  0.00000000E+00
  0.00000000E+00  0.00000000E+00  0.00000000E+00
  0.00000000E+00  0.00000000E+00  0.00000000E+00
  0.00000000E+00  0.00000000E+00  0.00000000E+00
  0.00000000E+00  0.00000000E+00  0.00000000E+00
  0.00000000E+00  0.00000000E+00  0.00000000E+00
  0.00000000E+00  0.00000000E+00  0.00000000E+00
  0.00000000E+00  0.00000000E+00  0.00000000E+00
  0.00000000E+00  0.00000000E+00  0.00000000E+00
  0.00000000E+00  0.00000000E+00  0.00000000E+00
  0.00000000E+00  0.00000000E+00  0.00000000E+00
  0.00000000E+00  0.00000000E+00  0.00000000E+00
  0.00000000E+00  0.00000000E+00  0.00000000E+00
  0.00000000E+00  0.00000000E+00  0.00000000E+00
  0.00000000E+00  0.00000000E+00  0.00000000E+00
  0.00000000E+00  0.00000000E+00  0.00000000E+00
  0.00000000E+00  0.00000000E+00  0.00000000E+00
  0.00000000E+00  0.00000000E+00  0.00000000E+00
  0.00000000E+00  0.00000000E+00  0.00000000E+00
  0.00000000E+00  0.00000000E+00  0.00000000E+00
  0.00000000E+00  0.00000000E+00  0.00000000E+00
  0.00000000E+00  0.00000000E+00  0.00000000E+00
  0.00000000E+00  0.00000000E+00  0.00000000E+00
  0.00000000E+00  0.00000000E+00  0.00000000E+00