Au1 Ga128 O192
   1.00000000000000
    24.9361379999999997    0.0000000000000000    0.0000000000000000
     0.0000000000000000   12.3494290000000007    0.0000000000000000
    -2.7833760000000001    0.0000000000000000   11.4316289999999992
   Au   Ga   O
     1   128   192
direct
0.373404 0.500000 0.501672 Au
0.289029 0.627027 0.388164 Ga
0.425642 0.629658 0.334763 Ga
0.421891 0.623915 0.844615 Ga
0.421549 0.875808 0.342984 Ga
0.420764 0.875072 0.842292 Ga
0.421549 0.124192 0.342984 Ga
0.420764 0.124928 0.842292 Ga
0.425642 0.370342 0.334763 Ga
0.421891 0.376085 0.844615 Ga
0.329065 0.500000 0.158221 Ga
0.318113 0.500000 0.674720 Ga
0.328809 0.750601 0.157210 Ga
0.327182 0.752561 0.659618 Ga
0.329186 0.000000 0.156781 Ga
0.328530 0.000000 0.655900 Ga
0.328809 0.249399 0.157210 Ga
0.327182 0.247439 0.659618 Ga
0.456349 0.500000 0.101635 Ga
0.469052 0.500000 0.629202 Ga
0.456307 0.750269 0.100352 Ga
0.454949 0.750683 0.601850 Ga
0.455548 0.000000 0.102221 Ga
0.455540 0.000000 0.602891 Ga
0.456307 0.249731 0.100352 Ga
0.454949 0.249318 0.601850 Ga
0.293197 0.625662 0.901306 Ga
0.294626 0.875884 0.396619 Ga
0.294040 0.875253 0.897718 Ga
0.294626 0.124116 0.396619 Ga
0.294040 0.124747 0.897718 Ga
0.289029 0.372973 0.388164 Ga
0.293197 0.374338 0.901306 Ga
0.167547 0.500000 0.340883 Ga
0.169313 0.500000 0.842320 Ga
0.168439 0.751797 0.340671 Ga
0.169347 0.750573 0.842698 Ga
0.169694 0.000000 0.341512 Ga
0.169621 0.000000 0.842634 Ga
0.168439 0.248203 0.340671 Ga
0.169347 0.249427 0.842698 Ga
0.077979 0.625511 0.155337 Ga
0.077882 0.625276 0.657261 Ga
0.077959 0.875529 0.155797 Ga
0.078187 0.875231 0.656797 Ga
0.077959 0.124471 0.155797 Ga
0.078187 0.124769 0.656797 Ga
0.077979 0.374489 0.155337 Ga
0.077882 0.374724 0.657261 Ga
0.204043 0.624888 0.101983 Ga
0.201150 0.628705 0.600862 Ga
0.204630 0.875082 0.102677 Ga
0.203348 0.876540 0.602071 Ga
0.204630 0.124918 0.102677 Ga
0.203348 0.123460 0.602071 Ga
0.204043 0.375112 0.101983 Ga
0.201150 0.371295 0.600862 Ga
0.044073 0.500000 0.398003 Ga
0.043939 0.500000 0.897211 Ga
0.044184 0.750171 0.397464 Ga
0.043847 0.750327 0.896966 Ga
0.044408 0.000000 0.397170 Ga
0.043946 0.000000 0.896738 Ga
0.044184 0.249829 0.397464 Ga
0.043847 0.249673 0.896966 Ga
0.920489 0.124985 0.342718 Ga
0.920250 0.124918 0.842535 Ga
0.920427 0.374978 0.342599 Ga
0.920324 0.374937 0.842643 Ga
0.920427 0.625022 0.342599 Ga
0.920324 0.625063 0.842643 Ga
0.920489 0.875015 0.342718 Ga
0.920250 0.875082 0.842535 Ga
0.829641 0.000000 0.157079 Ga
0.829309 0.000000 0.656862 Ga
0.829463 0.249997 0.157125 Ga
0.829422 0.249845 0.656963 Ga
0.829389 0.500000 0.157090 Ga
0.829519 0.500000 0.657026 Ga
0.829463 0.750003 0.157125 Ga
0.829422 0.750155 0.656963 Ga
0.954258 0.000000 0.101825 Ga
0.954399 0.000000 0.602004 Ga
0.954356 0.249942 0.101965 Ga
0.954379 0.249869 0.602025 Ga
0.954410 0.500000 0.102040 Ga
0.954352 0.500000 0.602022 Ga
0.954356 0.750058 0.101965 Ga
0.954379 0.750131 0.602025 Ga
0.795521 0.124848 0.397665 Ga
0.795526 0.124892 0.897797 Ga
0.795343 0.375067 0.397524 Ga
0.795439 0.374952 0.897747 Ga
0.795343 0.624933 0.397524 Ga
0.795439 0.625048 0.897747 Ga
0.795521 0.875152 0.397665 Ga
0.795526 0.875108 0.897797 Ga
0.671596 0.000000 0.342786 Ga
0.671716 0.000000 0.843318 Ga
0.671944 0.249523 0.342597 Ga
0.671950 0.248957 0.844343 Ga
0.671459 0.500000 0.342921 Ga
0.671887 0.500000 0.843926 Ga
0.671944 0.750477 0.342597 Ga
0.671950 0.751043 0.844343 Ga
0.580347 0.124582 0.156796 Ga
0.580065 0.124287 0.658390 Ga
0.580501 0.374520 0.157827 Ga
0.582833 0.372751 0.657554 Ga
0.580501 0.625480 0.157827 Ga
0.582833 0.627249 0.657554 Ga
0.580347 0.875418 0.156796 Ga
0.580065 0.875713 0.658390 Ga
0.705992 0.124668 0.102844 Ga
0.705379 0.124743 0.602459 Ga
0.705648 0.374911 0.102497 Ga
0.706136 0.374770 0.601709 Ga
0.705648 0.625089 0.102497 Ga
0.706136 0.625230 0.601709 Ga
0.705992 0.875332 0.102844 Ga
0.705379 0.875257 0.602459 Ga
0.545748 0.000000 0.397387 Ga
0.544651 0.000000 0.896782 Ga
0.548064 0.246752 0.397776 Ga
0.545984 0.249753 0.897150 Ga
0.545983 0.500000 0.397104 Ga
0.547233 0.500000 0.900289 Ga
0.548064 0.753248 0.397776 Ga
0.545984 0.750247 0.897150 Ga
0.248030 0.500000 0.364615 O
0.251167 0.500000 0.872492 O
0.249798 0.753771 0.367997 O
0.251170 0.750547 0.872557 O
0.251570 0.000000 0.371210 O
0.251432 0.000000 0.871273 O
0.249798 0.246229 0.367997 O
0.251170 0.249453 0.872557 O
0.498804 0.625137 0.125577 O
0.502008 0.631207 0.632702 O
0.498483 0.875299 0.127404 O
0.498038 0.874907 0.628256 O
0.498483 0.124701 0.127404 O
0.498038 0.125093 0.628256 O
0.498804 0.374863 0.125577 O
0.502008 0.368793 0.632702 O
0.413639 0.500000 0.215647 O
0.418423 0.500000 0.729469 O
0.413843 0.750338 0.215450 O
0.411455 0.746490 0.714469 O
0.413426 0.000000 0.217638 O
0.412616 0.000000 0.716950 O
0.413843 0.249662 0.215450 O
0.411455 0.253510 0.714469 O
0.337087 0.625431 0.282829 O
0.335327 0.623324 0.784737 O
0.337321 0.874393 0.282650 O
0.336406 0.874499 0.782361 O
0.337321 0.125607 0.282650 O
0.336406 0.125501 0.782361 O
0.337087 0.374569 0.282829 O
0.335327 0.376676 0.784737 O
0.331668 0.625243 0.056139 O
0.317661 0.624759 0.555484 O
0.331606 0.874989 0.054512 O
0.331012 0.874233 0.554088 O
0.331606 0.125011 0.054512 O
0.331012 0.125767 0.554088 O
0.331668 0.374757 0.056139 O
0.317661 0.375241 0.555484 O
0.442493 0.500000 0.440497 O
0.417418 0.500000 0.947399 O
0.419628 0.748072 0.443779 O
0.418244 0.749593 0.943723 O
0.418299 0.000000 0.445698 O
0.418292 0.000000 0.944907 O
0.419628 0.251928 0.443779 O
0.418244 0.250407 0.943723 O
0.001588 0.625058 0.371832 O
0.001378 0.625076 0.871386 O
0.001567 0.875126 0.371594 O
0.001180 0.875187 0.871196 O
0.001567 0.124874 0.371594 O
0.001180 0.124813 0.871196 O
0.001588 0.374942 0.371832 O
0.001378 0.374924 0.871386 O
0.247549 0.500000 0.127452 O
0.240412 0.500000 0.631872 O
0.247585 0.749666 0.128263 O
0.245856 0.751623 0.630616 O
0.247972 0.000000 0.128869 O
0.247488 0.000000 0.627925 O
0.247585 0.250334 0.128263 O
0.245856 0.248377 0.630616 O
0.161930 0.625804 0.216370 O
0.161425 0.626621 0.718848 O
0.162265 0.875742 0.216831 O
0.162196 0.875856 0.718101 O
0.162265 0.124258 0.216831 O
0.162196 0.124144 0.718101 O
0.161930 0.374196 0.216370 O
0.161425 0.373379 0.718848 O
0.085544 0.500000 0.281579 O
0.085817 0.500000 0.782188 O
0.085611 0.750571 0.281190 O
0.085717 0.750800 0.782133 O
0.085922 0.000000 0.281282 O
0.085906 0.000000 0.782056 O
0.085611 0.249429 0.281190 O
0.085717 0.249200 0.782133 O
0.081053 0.500000 0.054065 O
0.081643 0.500000 0.554804 O
0.080974 0.750467 0.053767 O
0.081500 0.750001 0.554430 O
0.080993 0.000000 0.053579 O
0.081334 0.000000 0.554312 O
0.080974 0.249533 0.053767 O
0.081500 0.249999 0.554430 O
0.167180 0.626517 0.443228 O
0.167755 0.625065 0.945129 O
0.167159 0.875941 0.444832 O
0.167952 0.875280 0.945709 O
0.167159 0.124059 0.444832 O
0.167952 0.124720 0.945709 O
0.167180 0.373483 0.443228 O
0.167755 0.374935 0.945129 O
0.752567 0.000000 0.372009 O
0.752674 0.000000 0.872145 O
0.752590 0.249855 0.371895 O
0.752575 0.249899 0.872016 O
0.752329 0.500000 0.371974 O
0.752546 0.500000 0.871964 O
0.752590 0.750145 0.371895 O
0.752575 0.750101 0.872016 O
0.997174 0.124908 0.127648 O
0.997357 0.124981 0.627666 O
0.997294 0.374956 0.127783 O
0.997291 0.374986 0.627837 O
0.997294 0.625044 0.127783 O
0.997291 0.625014 0.627837 O
0.997174 0.875092 0.127648 O
0.997357 0.875019 0.627666 O
0.913115 0.000000 0.217937 O
0.912983 0.000000 0.717673 O
0.913132 0.250171 0.217946 O
0.913034 0.250104 0.717722 O
0.913126 0.500000 0.217923 O
0.913050 0.500000 0.717743 O
0.913132 0.749829 0.217946 O
0.913034 0.749896 0.717722 O
0.836870 0.125137 0.281928 O
0.836733 0.125062 0.781769 O
0.836742 0.375128 0.281902 O
0.836712 0.374986 0.781832 O
0.836742 0.624872 0.281902 O
0.836712 0.625014 0.781832 O
0.836870 0.874863 0.281928 O
0.836733 0.874938 0.781769 O
0.832259 0.125129 0.054708 O
0.832126 0.124967 0.554611 O
0.832067 0.375044 0.054702 O
0.831899 0.374952 0.554560 O
0.832067 0.624956 0.054702 O
0.831899 0.625048 0.554560 O
0.832259 0.874871 0.054708 O
0.832126 0.875033 0.554611 O
0.917783 0.000000 0.445049 O
0.917537 0.000000 0.944943 O
0.917856 0.250042 0.445062 O
0.917743 0.250022 0.944991 O
0.917872 0.500000 0.445065 O
0.917815 0.500000 0.945025 O
0.917856 0.749958 0.445062 O
0.917743 0.749978 0.944991 O
0.502669 0.124709 0.371586 O
0.501796 0.125679 0.870184 O
0.506174 0.371038 0.364615 O
0.503414 0.375370 0.872906 O
0.506174 0.628962 0.364615 O
0.503414 0.624630 0.872906 O
0.502669 0.875291 0.371586 O
0.501796 0.874321 0.870184 O
0.748830 0.000000 0.128542 O
0.748289 0.000000 0.628114 O
0.748409 0.250013 0.128122 O
0.748342 0.249528 0.628163 O
0.748271 0.500000 0.128012 O
0.748479 0.500000 0.628030 O
0.748409 0.749987 0.128122 O
0.748342 0.750472 0.628163 O
0.664086 0.124009 0.217543 O
0.663968 0.124144 0.718490 O
0.664073 0.374464 0.217996 O
0.664531 0.375095 0.717909 O
0.664073 0.625536 0.217996 O
0.664531 0.624905 0.717909 O
0.664086 0.875991 0.217543 O
0.663968 0.875856 0.718490 O
0.587262 0.000000 0.281739 O
0.586878 0.000000 0.782319 O
0.588331 0.248003 0.280801 O
0.588230 0.248580 0.782874 O
0.587836 0.500000 0.281502 O
0.587454 0.500000 0.782047 O
0.588331 0.751997 0.280801 O
0.588230 0.751420 0.782874 O
0.581664 0.000000 0.053496 O
0.581795 0.000000 0.554914 O
0.582309 0.249551 0.054244 O
0.583724 0.247817 0.554964 O
0.583559 0.500000 0.056163 O
0.581054 0.500000 0.555091 O
0.582309 0.750449 0.054244 O
0.583724 0.752183 0.554964 O
0.668529 0.124849 0.445280 O
0.668869 0.124417 0.946068 O
0.668379 0.374735 0.445253 O
0.668628 0.374832 0.945355 O
0.668379 0.625265 0.445253 O
0.668628 0.625168 0.945355 O
0.668529 0.875151 0.445280 O
0.668869 0.875583 0.946068 O
