Au1 Ga128 O192
   1.00000000000000
    24.9361379999999997    0.0000000000000000    0.0000000000000000
     0.0000000000000000   12.3494290000000007    0.0000000000000000
    -2.7833760000000001    0.0000000000000000   11.4316289999999992
   Au   Ga   O
     1   128   192
direct
0.344254 0.625000 0.431114 Au
0.252275 0.624998 0.296064 Ga
0.433528 0.625000 0.342868 Ga
0.421187 0.625000 0.847287 Ga
0.422466 0.875998 0.343508 Ga
0.422402 0.875443 0.845391 Ga
0.421046 0.125000 0.344527 Ga
0.420950 0.125000 0.843306 Ga
0.422465 0.374002 0.343509 Ga
0.422402 0.374557 0.845392 Ga
0.330196 0.499540 0.150631 Ga
0.328890 0.495584 0.668430 Ga
0.330196 0.750459 0.150629 Ga
0.328890 0.754416 0.668430 Ga
0.328649 -0.000039 0.159095 Ga
0.329187 0.000607 0.656428 Ga
0.328649 0.250039 0.159096 Ga
0.329187 0.249394 0.656429 Ga
0.457360 0.499831 0.103969 Ga
0.458174 0.498574 0.610136 Ga
0.457361 0.750169 0.103969 Ga
0.458174 0.751426 0.610136 Ga
0.455731 0.000168 0.103389 Ga
0.455546 0.000415 0.603738 Ga
0.455731 0.249832 0.103390 Ga
0.455546 0.249585 0.603739 Ga
0.292661 0.625000 0.897013 Ga
0.294263 0.869892 0.398344 Ga
0.293006 0.875292 0.897079 Ga
0.293601 0.125002 0.397523 Ga
0.294510 0.125000 0.897660 Ga
0.294263 0.380109 0.398344 Ga
0.293006 0.374708 0.897080 Ga
0.164293 0.492645 0.347826 Ga
0.168508 0.497153 0.833615 Ga
0.164292 0.757355 0.347825 Ga
0.168508 0.752847 0.833614 Ga
0.170141 0.001560 0.341470 Ga
0.169452 0.000744 0.843259 Ga
0.170141 0.248441 0.341471 Ga
0.169452 0.249256 0.843261 Ga
0.075508 0.625000 0.154971 Ga
0.077864 0.625000 0.653187 Ga
0.077622 0.876971 0.153324 Ga
0.077238 0.875923 0.654753 Ga
0.077967 0.125000 0.156445 Ga
0.077955 0.125000 0.656619 Ga
0.077622 0.373030 0.153326 Ga
0.077238 0.374077 0.654754 Ga
0.196715 0.625000 0.078688 Ga
0.205112 0.624999 0.598391 Ga
0.202925 0.874248 0.102606 Ga
0.204322 0.876626 0.602641 Ga
0.205209 0.125000 0.103018 Ga
0.204498 0.125001 0.603018 Ga
0.202925 0.375752 0.102607 Ga
0.204321 0.373374 0.602642 Ga
0.042278 0.499845 0.396402 Ga
0.044573 0.500152 0.895812 Ga
0.042277 0.750155 0.396401 Ga
0.044573 0.749848 0.895811 Ga
0.044201 0.000559 0.396551 Ga
0.043509 0.000372 0.895642 Ga
0.044201 0.249441 0.396552 Ga
0.043509 0.249628 0.895643 Ga
0.920174 0.125000 0.342256 Ga
0.919861 0.125000 0.842446 Ga
0.919865 0.374535 0.342296 Ga
0.920161 0.375074 0.842108 Ga
0.919409 0.625000 0.342299 Ga
0.920251 0.625000 0.841975 Ga
0.919865 0.875465 0.342296 Ga
0.920161 0.874926 0.842108 Ga
0.829248 0.000124 0.156641 Ga
0.829022 -0.000105 0.656930 Ga
0.829248 0.249876 0.156641 Ga
0.829022 0.250105 0.656930 Ga
0.829003 0.499826 0.156645 Ga
0.828932 0.500050 0.657126 Ga
0.829003 0.750174 0.156645 Ga
0.828932 0.749950 0.657126 Ga
0.954197 0.000030 0.101795 Ga
0.953788 0.000388 0.601603 Ga
0.954197 0.249970 0.101795 Ga
0.953788 0.249612 0.601603 Ga
0.953320 0.499459 0.101207 Ga
0.954051 0.499966 0.601897 Ga
0.953320 0.750541 0.101207 Ga
0.954051 0.750034 0.601897 Ga
0.795429 0.125000 0.397751 Ga
0.795220 0.125000 0.897753 Ga
0.795361 0.374783 0.397831 Ga
0.795155 0.375049 0.897546 Ga
0.795253 0.625000 0.397979 Ga
0.795110 0.625000 0.897530 Ga
0.795361 0.875217 0.397831 Ga
0.795155 0.874951 0.897546 Ga
0.671621 0.000326 0.343124 Ga
0.671597 0.000330 0.843585 Ga
0.671621 0.249674 0.343124 Ga
0.671597 0.249670 0.843585 Ga
0.672008 0.499634 0.342638 Ga
0.671379 0.499759 0.843654 Ga
0.672008 0.750366 0.342638 Ga
0.671379 0.750241 0.843654 Ga
0.580186 0.125000 0.158088 Ga
0.580025 0.125000 0.657968 Ga
0.580555 0.374322 0.157461 Ga
0.580564 0.373605 0.659163 Ga
0.580884 0.625000 0.157675 Ga
0.580705 0.625000 0.659019 Ga
0.580555 0.875678 0.157461 Ga
0.580564 0.876395 0.659163 Ga
0.705619 0.125000 0.102856 Ga
0.705357 0.125000 0.602741 Ga
0.705673 0.374651 0.102418 Ga
0.705250 0.374900 0.602543 Ga
0.705647 0.625000 0.102173 Ga
0.705116 0.625000 0.602163 Ga
0.705673 0.875349 0.102418 Ga
0.705250 0.875100 0.602543 Ga
0.546193 0.001415 0.397873 Ga
0.545878 0.000670 0.898118 Ga
0.546193 0.248585 0.397873 Ga
0.545878 0.249330 0.898118 Ga
0.549479 0.495711 0.400079 Ga
0.545768 0.500051 0.898509 Ga
0.549479 0.754289 0.400079 Ga
0.545768 0.749949 0.898509 Ga
0.242861 0.492945 0.365677 O
0.249871 0.499852 0.872637 O
0.242861 0.757058 0.365679 O
0.249871 0.750148 0.872637 O
0.251922 0.997968 0.372776 O
0.250967 0.000543 0.872088 O
0.251922 0.252033 0.372777 O
0.250967 0.249457 0.872089 O
0.499668 0.625000 0.131071 O
0.499739 0.625000 0.632939 O
0.498978 0.875887 0.129806 O
0.499591 0.877461 0.631914 O
0.498403 0.125000 0.129429 O
0.498358 0.125000 0.628626 O
0.498978 0.374113 0.129807 O
0.499591 0.372539 0.631915 O
0.414485 0.504013 0.219673 O
0.415121 0.496737 0.723130 O
0.414486 0.745986 0.219672 O
0.415121 0.753263 0.723129 O
0.412821 0.998637 0.217948 O
0.412906 -0.000058 0.717961 O
0.412821 0.251364 0.217949 O
0.412906 0.250058 0.717962 O
0.324690 0.625000 0.253805 O
0.338063 0.625000 0.793925 O
0.336960 0.870246 0.283092 O
0.336445 0.875520 0.785046 O
0.336503 0.124999 0.283117 O
0.336587 0.125000 0.782758 O
0.336959 0.379754 0.283093 O
0.336445 0.374480 0.785046 O
0.332700 0.624999 0.049503 O
0.334929 0.625000 0.589178 O
0.330638 0.875329 0.054077 O
0.330794 0.873094 0.555938 O
0.330489 0.125000 0.055711 O
0.331486 0.125000 0.554137 O
0.330638 0.374671 0.054078 O
0.330794 0.376906 0.555938 O
0.428377 0.498846 0.447926 O
0.419551 0.498634 0.948723 O
0.428377 0.751154 0.447926 O
0.419551 0.751366 0.948723 O
0.418711 -0.000448 0.446126 O
0.418514 0.000309 0.946379 O
0.418711 0.250448 0.446127 O
0.418514 0.249691 0.946380 O
0.000358 0.625000 0.369545 O
0.001814 0.625000 0.871718 O
0.001037 0.875917 0.369972 O
0.001596 0.874391 0.871965 O
0.001145 0.125000 0.371072 O
0.000764 0.125000 0.870141 O
0.001037 0.374083 0.369973 O
0.001596 0.375609 0.871966 O
0.244400 0.505043 0.125987 O
0.246722 0.498667 0.628798 O
0.244401 0.744957 0.125988 O
0.246722 0.751333 0.628798 O
0.247238 0.998166 0.129244 O
0.247819 0.000376 0.629222 O
0.247238 0.251834 0.129245 O
0.247819 0.249624 0.629223 O
0.168396 0.625001 0.216861 O
0.161808 0.625000 0.711560 O
0.160130 0.878043 0.216110 O
0.161945 0.876360 0.716515 O
0.162908 0.125000 0.217491 O
0.162380 0.125000 0.717827 O
0.160130 0.371957 0.216112 O
0.161945 0.373640 0.716516 O
0.084675 0.502326 0.279894 O
0.084964 0.498354 0.777859 O
0.084674 0.747674 0.279894 O
0.084964 0.751645 0.777858 O
0.085571 0.001107 0.280760 O
0.085849 0.000492 0.781579 O
0.085571 0.248893 0.280761 O
0.085849 0.249508 0.781580 O
0.082117 0.501596 0.054093 O
0.080385 0.499229 0.551932 O
0.082117 0.748403 0.054092 O
0.080385 0.750770 0.551931 O
0.080576 0.001108 0.052452 O
0.080444 0.000635 0.553918 O
0.080576 0.248892 0.052454 O
0.080444 0.249365 0.553919 O
0.165249 0.625000 0.442948 O
0.160980 0.625000 0.928862 O
0.164078 0.880419 0.447904 O
0.167264 0.874208 0.944404 O
0.168238 0.125000 0.445402 O
0.167810 0.125000 0.946447 O
0.164078 0.369582 0.447905 O
0.167264 0.375792 0.944405 O
0.752566 0.000073 0.372228 O
0.752481 0.000034 0.872082 O
0.752566 0.249927 0.372228 O
0.752481 0.249966 0.872082 O
0.752600 0.499906 0.371996 O
0.752316 0.499996 0.871959 O
0.752600 0.750094 0.371996 O
0.752316 0.750004 0.871959 O
0.997001 0.125000 0.127204 O
0.996899 0.125000 0.627776 O
0.997231 0.375481 0.126900 O
0.996653 0.374599 0.627170 O
0.996031 0.625000 0.126528 O
0.997079 0.625000 0.626733 O
0.997231 0.874519 0.126900 O
0.996653 0.875401 0.627170 O
0.912922 0.999862 0.217516 O
0.912770 0.999691 0.717860 O
0.912922 0.250138 0.217516 O
0.912770 0.250309 0.717860 O
0.912702 0.499761 0.217612 O
0.912970 0.500258 0.717886 O
0.912702 0.750239 0.217612 O
0.912970 0.749742 0.717886 O
0.836692 0.125000 0.281651 O
0.836576 0.125000 0.781893 O
0.836573 0.374990 0.281758 O
0.836535 0.375235 0.781744 O
0.836479 0.625000 0.281856 O
0.836509 0.625000 0.781707 O
0.836573 0.875010 0.281758 O
0.836535 0.874765 0.781744 O
0.832330 0.125000 0.054436 O
0.832112 0.125000 0.554851 O
0.832105 0.375061 0.054426 O
0.832052 0.375210 0.554792 O
0.832014 0.625000 0.054549 O
0.832067 0.625000 0.554788 O
0.832105 0.874939 0.054426 O
0.832052 0.874790 0.554792 O
0.917348 0.000194 0.444660 O
0.917767 0.999659 0.944815 O
0.917348 0.249806 0.444660 O
0.917767 0.250341 0.944815 O
0.917778 0.499789 0.444728 O
0.917489 0.500107 0.944309 O
0.917778 0.750211 0.444728 O
0.917489 0.749893 0.944309 O
0.502114 0.125000 0.371634 O
0.502279 0.125000 0.871869 O
0.504002 0.373950 0.370340 O
0.503246 0.374373 0.873990 O
0.510325 0.625000 0.372358 O
0.502559 0.625000 0.874295 O
0.504002 0.876050 0.370340 O
0.503246 0.875627 0.873990 O
0.748496 0.000157 0.128151 O
0.748146 -0.000067 0.628234 O
0.748496 0.249843 0.128151 O
0.748146 0.250067 0.628234 O
0.748276 0.499898 0.128151 O
0.747940 0.500066 0.627939 O
0.748276 0.750102 0.128151 O
0.747940 0.749934 0.627939 O
0.664156 0.125000 0.218329 O
0.663938 0.125000 0.718496 O
0.664269 0.374137 0.217950 O
0.663962 0.374452 0.718753 O
0.664244 0.625000 0.217925 O
0.663838 0.625000 0.718435 O
0.664269 0.875863 0.217950 O
0.663962 0.875548 0.718753 O
0.587731 0.000937 0.282392 O
0.587609 0.000815 0.782935 O
0.587731 0.249063 0.282392 O
0.587609 0.249185 0.782935 O
0.588692 0.498281 0.281584 O
0.587490 0.499716 0.783383 O
0.588692 0.751719 0.281584 O
0.587490 0.750284 0.783383 O
0.582444 0.000586 0.055172 O
0.582552 0.000680 0.555083 O
0.582444 0.249414 0.055172 O
0.582552 0.249320 0.555083 O
0.582517 0.499758 0.055346 O
0.583230 0.498717 0.557547 O
0.582517 0.750242 0.055346 O
0.583230 0.751283 0.557547 O
0.668682 0.125000 0.445718 O
0.668754 0.125000 0.945969 O
0.668461 0.374964 0.445422 O
0.668660 0.374737 0.945720 O
0.668375 0.625000 0.444960 O
0.668626 0.625000 0.945563 O
0.668461 0.875036 0.445422 O
0.668660 0.875263 0.945720 O
