Au1 Ga128 O192
   1.00000000000000
    24.9361379999999997    0.0000000000000000    0.0000000000000000
     0.0000000000000000   12.3494290000000007    0.0000000000000000
    -2.7833760000000001    0.0000000000000000   11.4316289999999992
   Au   Ga   O
     1   128   192
Direct
  0.3381311662012171  0.6250000000000000  0.4204618898480272
  0.1406303791520971  0.6250000000000000  0.5710642253607719
  0.4286921766290183  0.6250000000000000  0.3310813192962154
  0.4218782874816474  0.6250000000000000  0.8436631661434509
  0.4227510236627913  0.8762815093844999  0.3409010318732744
  0.4226608236097641  0.8761123298463436  0.8428749733778145
  0.4217403020581442  0.1250000000000000  0.3439280052713207
  0.4208581418670068  0.1250000000000000  0.8420650948082694
  0.4227510236627913  0.3737185206154957  0.3409010318732744
  0.4226608236097641  0.3738876701536563  0.8428749733778145
  0.3310474854758627  0.7500377760283449  0.1527397759384492
  0.3286147763933724  0.7563376371118081  0.6716368317491253
  0.3292973480100038  0.0000892027054395  0.1602545734912899
  0.3286365521697752  0.0003362603473056  0.6545544327697017
  0.3292973480100038  0.2499097912945625  0.1602545734912899
  0.3286365521697752  0.2496637456526949  0.6545544327697017
  0.3310474854758627  0.4999622529716540  0.1527397759384492
  0.3286147763933724  0.4936623628881920  0.6716368317491253
  0.4584725425787152  0.7516950948542566  0.0994946738678301
  0.4564971120404355  0.7506705669507278  0.6027245798156379
  0.4557420243854694  0.0005039909031603  0.1023295153367610
  0.4555906472329628  0.0001626222940463  0.6022596796368297
  0.4557420243854694  0.2494960150968402  0.1023295153367610
  0.4555906472329628  0.2498373827059505  0.6022596796368297
  0.4584725425787152  0.4983048761457447  0.0994946738678301
  0.4564971120404355  0.4993294630492676  0.6027245798156379
  0.2922392256919685  0.6250000000000000  0.8936223696977729
  0.2936835374971924  0.8635514677092352  0.3983770559266927
  0.2941002702486846  0.8762863627161385  0.8989835435502158
  0.2931491846650502  0.1250000000000000  0.3954468300586107
  0.2953709401326050  0.1250000000000000  0.8983832918274083
  0.2936835374971924  0.3864485612907633  0.3983770559266927
  0.2941002702486846  0.3737136372838611  0.8989835435502158
  0.1666210826072247  0.7591685814988900  0.3317145632240563
  0.1711014639858327  0.7509904714784923  0.8474775252770474
  0.1711668378635272  0.0010295757752997  0.3453073095422040
  0.1706867634580597  0.0007849864037165  0.8438071186799518
  0.1711668378635272  0.2489704222247003  0.3453073095422040
  0.1706867634580597  0.2492150185962874  0.8438071186799518
  0.1666210826072247  0.4908314485011056  0.3317145632240563
  0.1711014639858327  0.4990095285215077  0.8474775252770474
  0.0775682305848221  0.6250000000000000  0.1570979280822078
  0.0675620480766349  0.6250000000000000  0.6945439789783725
  0.0769897771529875  0.8785341076591276  0.1560788781572616
  0.0796595126437898  0.8774284608933042  0.6604754741833242
  0.0784187968715074  0.1250000000000000  0.1578660986510309
  0.0791288573938094  0.1250000000000000  0.6570318747448711
  0.0769897771529875  0.3714658623408769  0.1560788781572616
  0.0796595126437898  0.3725715391066956  0.6604754741833242
  0.2065714590276460  0.6250000000000000  0.1089081213103183
  0.2475523160185705  0.6250000000000000  0.5025508191983050
  0.2056092711599602  0.8752426808178156  0.1030798990052195
  0.2052656415534929  0.8694333910724288  0.5995714398971220
  0.2046465803812506  0.1250000000000000  0.1033485956947915
  0.2056778580857574  0.1250000000000000  0.6042612530837055
  0.2056092711599602  0.3747572891821890  0.1030798990052195
  0.2052656415534929  0.3805665789275759  0.5995714398971220
  0.0419994428193479  0.7502655058601468  0.3957479896476383
  0.0406212673180836  0.7533754297359181  0.9039203717001409
  0.0448309781533604  0.0002708291916982  0.3975736822715673
  0.0439499578458262  0.0012840973160686  0.8968444038182312
  0.0448309781533604  0.2497291758082987  0.3975736822715673
  0.0439499578458262  0.2487158976839275  0.8968444038182312
  0.0419994428193479  0.4997345231398521  0.3957479896476383
  0.0406212673180836  0.4966246002640840  0.9039203717001409
  0.9197481835909406  0.1250000000000000  0.8412440772172521
  0.9203499672272757  0.1250000000000000  0.3429671200982063
  0.9187566238751438  0.3735802054790184  0.8421038213938349
  0.9193996734227403  0.3739163430545959  0.3414104526764085
  0.9189711830655667  0.6250000000000000  0.8416778415636129
  0.9186054873169887  0.6250000000000000  0.3410585347451832
  0.9187566238751438  0.8764198245209768  0.8421038213938349
  0.9193996734227403  0.8760836569454041  0.3414104526764085
  0.8287919018208109  0.0001972022770350  0.6551627673522571
  0.8288409856096928  0.0002800931003771  0.1561585743823176
  0.8287919018208109  0.2498027927229681  0.6551627673522571
  0.8288409856096928  0.2497199048996226  0.1561585743823176
  0.8279043482924453  0.4998497048504444  0.6563868166941489
  0.8284941238226571  0.4997166499474360  0.1558387844791885
  0.8279043482924453  0.7501502951495560  0.6563868166941489
  0.8284941238226571  0.7502833200525610  0.1558387844791885
  0.9554262804011134 -0.0002471077458901  0.6023893414068207
  0.9536114787262905  0.0008124382755439  0.1013319898246540
  0.9554262804011134  0.2502471107458938  0.6023893414068207
  0.9536114787262905  0.2491875637244563  0.1013319898246540
  0.9510399145699924  0.4969898227802575  0.6001845757482691
  0.9536539750751400  0.4997655595153842  0.1023069919649558
  0.9510399145699924  0.7530101772197424  0.6001845757482691
  0.9536539750751400  0.7502344404846150  0.1023069919649558
  0.7952811089014649  0.1250000000000000  0.8969764843691683
  0.7949916248637459  0.1250000000000000  0.3966863943827971
  0.7945006205039559  0.3747588506499357  0.8972651741154636
  0.7948289786539064  0.3750114634684514  0.3970048432094327
  0.7943495275880507  0.6250000000000000  0.8974858280896324
  0.7946470643580632  0.6250000000000000  0.3974863497148288
  0.7945006205039559  0.8752411793500668  0.8972651741154636
  0.7948289786539064  0.8749885365315490  0.3970048432094327
  0.6710919823958917  0.0003682586887044  0.8421645705847135
  0.6713982902447503  0.0004481288397872  0.3421028707419306
  0.6710919823958917  0.2496317363112986  0.8421645705847135
  0.6713982902447503  0.2495518651602122  0.3421028707419306
  0.6707724584215972  0.4998076527715030  0.8419035124432188
  0.6712300626603482  0.4996599551458897  0.3417656494333234
  0.6707724584215972  0.7501923762285034  0.8419035124432188
  0.6712300626603482  0.7503400448541102  0.3417656494333234
  0.5797506526895178  0.1250000000000000  0.6569907497354945
  0.5802406971995679  0.1250000000000000  0.1567600354019641
  0.5797852302525188  0.3742891070677026  0.6569797331826676
  0.5808075450170430  0.3740034445699894  0.1559848907722163
  0.5796287721213551  0.6250000000000000  0.6564806878219663
  0.5807338760300986  0.6250000000000000  0.1560575244808663
  0.5797852302525188  0.8757108929322973  0.6569797331826676
  0.5808075450170430  0.8759965554300103  0.1559848907722163
  0.7051773573116764  0.1250000000000000  0.6020954640851740
  0.7052102047688755  0.1250000000000000  0.1015819118113244
  0.7047928032167502  0.3746392261183011  0.6016057081919611
  0.7052977209041226  0.3746710492457202  0.1012605294131754
  0.7044636930317922  0.6250000000000000  0.6012408256126811
  0.7051363933024108  0.6250000000000000  0.1011607953295054
  0.7047928032167502  0.8753607738816989  0.6016057081919611
  0.7052977209041226  0.8753289217542811  0.1012605294131754
  0.5459440794849261  0.0008317449679782  0.8974382289872566
  0.5467559259086712  0.0014482536740417  0.3971414059549776
  0.5459440794849261  0.2491682590320222  0.8974382289872566
  0.5467559259086712  0.2485517463259583  0.3971414059549776
  0.5458042574819673  0.4998735732918261  0.8969243524392634
  0.5473616770759898  0.4971812225340169  0.3971892451060038
  0.5458042574819673  0.7501264267081742  0.8969243524392634
  0.5473616770759898  0.7528187774659828  0.3971892451060038
  0.2437941044444441  0.7475250124226069  0.3830842993946946
  0.2507277666803083  0.7519423936862809  0.8690195072518807
  0.2520137144146379 -0.0042365221922117  0.3724764181694732
  0.2512016235002663  0.0009248328715718  0.8719284473457374
  0.2520137144146379  0.2542365521922070  0.3724764181694732
  0.2512016235002663  0.2490751701284319  0.8719284473457374
  0.2437941044444441  0.5024749875773927  0.3830842993946946
  0.2507277666803083  0.4980576063137191  0.8690195072518807
  0.4999570957197144  0.6250000000000000  0.1254763982081459
  0.4988992026907245  0.6250000000000000  0.6303372104045163
  0.5001013784360238  0.8776550520413338  0.1255653089584291
  0.4989444941762111  0.8762292581742372  0.6299646424626230
  0.4987734953245311  0.1250000000000000  0.1279746140576940
  0.4984712068361098  0.1250000000000000  0.6284802639937995
  0.5001013784360238  0.3723449479586664  0.1255653089584291
  0.4989444941762111  0.3737707418257624  0.6299646424626230
  0.4170742735114624  0.7549277138881122  0.2134667491278127
  0.4137049553674457  0.7510647313312384  0.7175417127987654
  0.4133826775927794  0.0004409499706770  0.2173907279529020
  0.4127929611748462  0.0001333517567080  0.7166419112304928
  0.4133826775927794  0.2495590500293231  0.2173907279529020
  0.4127929611748462  0.2498666532432888  0.7166419112304928
  0.4170742735114624  0.4950722861118880  0.2134667491278127
  0.4137049553674457  0.4989352686687614  0.7175417127987654
  0.3444680954161105  0.6250000000000000  0.2574911821062460
  0.3385254859356517  0.6250000000000000  0.7911107126139474
  0.3369861691009113  0.8719544775868778  0.2837262375836601
  0.3367317044936503  0.8766916826502624  0.7857633888799356
  0.3365039448029362  0.1250000000000000  0.2827513574821806
  0.3361482456862349  0.1250000000000000  0.7812712707154821
  0.3369861691009113  0.3780455224131218  0.2837262375836601
  0.3367317044936503  0.3733083173497375  0.7857633888799356
  0.3306419869001250  0.6250000000000000  0.0466092270092917
  0.3268553532428615  0.6250000000000000  0.5801945907761014
  0.3311386113321674  0.8764793130944113  0.0547819484141936
  0.3312282774540591  0.8728175557376204  0.5564134549926822
  0.3311899854255319  0.1250000000000000  0.0556544080729002
  0.3298807875582545  0.1250000000000000  0.5529590478814512
  0.3311386113321674  0.3735206569055867  0.0547819484141936
  0.3312282774540591  0.3771824442623792  0.5564134549926822
  0.4275452201165502  0.7511056111970833  0.4418206091173155
  0.4202943810006228  0.7515060620393171  0.9442749696904462
  0.4192883352803147  0.0000680008525326  0.4449661238457777
  0.4186337306527461  0.0003647470732554  0.9450277520772355
  0.4192883352803147  0.2499319701474683  0.4449661238457777
  0.4186337306527461  0.2496352469267441  0.9450277520772355
  0.4275452201165502  0.4988943888029164  0.4418206091173155
  0.4202943810006228  0.4984939089606764  0.9442749696904462
  0.0001074421907124  0.6250000000000000  0.3722610295065661
  0.0011018319851097  0.6250000000000000  0.8675199382617939
  0.0014250395770154  0.8754313998140976  0.3747611609088340
 -0.0002294757897834  0.8782379791477972  0.8709463182602029
  0.0018333601574213  0.1250000000000000  0.3725773907315708
  0.0008527113762700  0.1250000000000000  0.8697838981334599
  0.0014250395770154  0.3745686301859047  0.3747611609088340
 -0.0002294757897834  0.3717620508522054  0.8709463182602029
  0.2483179156706143  0.7509786124095671  0.1327767507229242
  0.2459532739141367  0.7425404794151871  0.6222281507324008
  0.2476204322124458  0.0004424101153726  0.1287110902111647
  0.2468774362478015  0.9974572565113351  0.6288041569800837
  0.2476204322124458  0.2495575838846270  0.1287110902111647
  0.2468774362478015  0.2525427134886626  0.6288041569800837
  0.2483179156706143  0.4990213875904328  0.1327767507229242
  0.2459532739141367  0.5074595205848129  0.6222281507324008
  0.1600919716480521  0.6250000000000000  0.2157997267600587
  0.1557711706627658  0.6250000000000000  0.7296337389560257
  0.1609347887005271  0.8777950804213633  0.2139953474663245
  0.1617709408390477  0.8711091695025476  0.7167430321379636
  0.1627472548987011  0.1250000000000000  0.2189362885278481
  0.1625525785282262  0.1250000000000000  0.7181934149575577
  0.1609347887005271  0.3722049495786319  0.2139953474663245
  0.1617709408390477  0.3788908604974551  0.7167430321379636
  0.0845300554336704  0.7500943984163359  0.2824313016808232
  0.0826604779800039  0.7545023554560868  0.7878375895729842
  0.0856607299399340  0.0008000831557139  0.2811797633998267
  0.0864073927472220 -0.0002258412367519  0.7827428851665811
  0.0856607299399340  0.2491998868442836  0.2811797633998267
  0.0864073927472220  0.2502258412367520  0.7827428851665811
  0.0845300554336704  0.4999056015836643  0.2824313016808232
  0.0826604779800039  0.4954976145439101  0.7878375895729842
  0.0795594859379696  0.7513965139399317  0.0568346483962633
  0.0840546457941607  0.7390080544709070  0.5546788530698170
  0.0803026691534136  0.0011489985898235  0.0535024539612806
  0.0808379840940268 -0.0008002809321861  0.5551998149126164
  0.0803026691534136  0.2488510074101771  0.0535024539612806
  0.0808379840940268  0.2508002809321862  0.5551998149126164
  0.0795594859379696  0.4986034560600656  0.0568346483962633
  0.0840546457941607  0.5109919455290930  0.5546788530698170
  0.1664906038683957  0.6250000000000000  0.4415335718795629
  0.1690328681884928  0.6250000000000000  0.9499486392302546
  0.1624349624691565  0.8776333120170232  0.4454809804067215
  0.1675676845708313  0.8757511916822748  0.9462098770722587
  0.1680699891849002  0.1250000000000000  0.4470439044636934
  0.1671022404853920  0.1250000000000000  0.9462620827713101
  0.1624349624691565  0.3723667179829722  0.4454809804067215
  0.1675676845708313  0.3742488383177276  0.9462098770722587
  0.7523776246062935  0.0004394226418736  0.8713130025978397
  0.7525011511221199  0.0000256299352590  0.3714754369286698
  0.7523776246062935  0.2495605723581296  0.8713130025978397
  0.7525011511221199  0.2499743680647409  0.3714754369286698
  0.7520756554996785  0.4998710056055814  0.8711516336274620
  0.7522982578744591  0.4999536410114813  0.3713795403326520
  0.7520756554996785  0.7501290243944209  0.8711516336274620
  0.7522982578744591  0.7500463889885134  0.3713795403326520
  0.9981709080179576  0.1250000000000000  0.6288183062545324
  0.9969328528619446  0.1250000000000000  0.1275031535314203
  0.9984165715627067  0.3773893579302070  0.6258880535716096
  0.9964417425264679  0.3744144475362136  0.1287575526775471
  0.9926845790546647  0.6250000000000000  0.6238252928501632
  0.9966975853731042  0.6250000000000000  0.1278693490483152
  0.9984165715627067  0.8726106420697929  0.6258880535716096
  0.9964417425264679  0.8755855224637838  0.1287575526775471
  0.9130927995504332  0.9995389742788670  0.7165183259289570
  0.9129909028787471 -0.0000241740296433  0.2183101419798344
  0.9130927995504332  0.2504610257211333  0.7165183259289570
  0.9129909028787471  0.2500241720296431  0.2183101419798344
  0.9121085511960560  0.4992723185137563  0.7180549628636942
  0.9126966449068844  0.4998849538474465  0.2179879346857736
  0.9121085511960560  0.7507277114862463  0.7180549628636942
  0.9126966449068844  0.7501150751525523  0.2179879346857736
  0.8366823405687407  0.1250000000000000  0.7805327274324262
  0.8369532226728426  0.1250000000000000  0.2818049344576776
  0.8361644469449715  0.3748864572442743  0.7814342915705408
  0.8363867046185587  0.3747106518116100  0.2811996662437428
  0.8362153062419881  0.6250000000000000  0.7819175865417389
  0.8360973993902073  0.6250000000000000  0.2812491218694587
  0.8361644469449715  0.8751135127557231  0.7814342915705408
  0.8363867046185587  0.8752893781883850  0.2811996662437428
  0.8321152479662651  0.1250000000000000  0.5535297479899984
  0.8324980812580359  0.1250000000000000  0.0541121933273908
  0.8321395939289415  0.3755025242090325  0.5539929483990814
  0.8323078689950948  0.3750166145991917  0.0539365882124408
  0.8320928990800899  0.6250000000000000  0.5544970692238932
  0.8322358558299612  0.6250000000000000  0.0540728416456402
  0.8321395939289415  0.8744974757909679  0.5539929483990814
  0.8323078689950948  0.8749833554008062  0.0539365882124408
  0.9168460608015946  0.0008739427147887  0.9446050855021771
  0.9182630076034348 -0.0000623537264556  0.4458066417521107
  0.9168460608015946  0.2491260612852115  0.9446050855021771
  0.9182630076034348  0.2500623577264559  0.4458066417521107
  0.9186773325125938  0.4999718989523483  0.9446083615891187
  0.9167610973787085  0.4992616949092149  0.4433770430026222
  0.9186773325125938  0.7500281010476518  0.9446083615891187
  0.9167610973787085  0.7507382750907823  0.4433770430026222
  0.5023441326397260  0.1250000000000000  0.8713492871773977
  0.5029912648010252  0.1250000000000000  0.3710492470085591
  0.5033274205948997  0.3742175370327851  0.8715435684949577
  0.5044517505145129  0.3727057917489442  0.3687585492432601
  0.5030068857622323  0.6250000000000000  0.8715187904195180
  0.5074389967051058  0.6250000000000000  0.3667897630155728
  0.5033274205948997  0.8757824629672143  0.8715435684949577
  0.5044517505145129  0.8772942082510560  0.3687585492432601
  0.7481650003558642  0.9998836952814193  0.6273904997176496
  0.7483775307907020  0.0001554851337538  0.1271726565901021
  0.7481650003558642  0.2501163047185809  0.6273904997176496
  0.7483775307907020  0.2498445158662428  0.1271726565901021
  0.7475975225127323  0.5000744984090895  0.6272868103175698
  0.7481083948512018  0.4999565279523140  0.1271142605427211
  0.7475975225127323  0.7499255015909105  0.6272868103175698
  0.7481083948512018  0.7500434720476863  0.1271142605427211
  0.6639831907105008  0.1250000000000000  0.7178339151368547
  0.6645696706474463  0.1250000000000000  0.2178995354951742
  0.6637505937876309  0.3746999202113929  0.7175938496431110
  0.6644336286396986  0.3744069046759476  0.2173484507613362
  0.6634891103042398  0.6250000000000000  0.7172391173111753
  0.6642111806420782  0.6250000000000000  0.2171944455590931
  0.6637505937876309  0.8753000497886045  0.7175938496431110
  0.6644336286396986  0.8755930953240526  0.2173484507613362
  0.5875186413923487  0.0005476051537191  0.7818335402146469
  0.5882267754690832  0.0012965305068296  0.2812832331342616
  0.5875186413923487  0.2494523998462778  0.7818335402146469
  0.5882267754690832  0.2487034994931658  0.2812832331342616
  0.5874284049014197  0.4997255229928106  0.7816022032304535
  0.5883575679803713  0.4986362497232102  0.2804827173994648
  0.5874284049014197  0.7502744470071867  0.7816022032304535
  0.5883575679803713  0.7513637502767895  0.2804827173994648
  0.5829515335285782  0.0006105491554330  0.5546397919198237
  0.5836739943070582  0.0010614796768818  0.0537708595606934
  0.5829515335285782  0.2493894548445674  0.5546397919198237
  0.5836739943070582  0.2489385213231218  0.0537708595606934
  0.5826214896019012  0.4993317007562478  0.5548227178749613
  0.5831720276118976  0.4995537321123846  0.0535762650712892
  0.5826214896019012  0.7506682992437521  0.5548227178749613
  0.5831720276118976  0.7504462678876156  0.0535762650712892
  0.6688456922246421  0.1250000000000000  0.9447750450659064
  0.6689261635511305  0.1250000000000000  0.4451299563876011
  0.6688790105072792  0.3747652908241153  0.9444567880868937
  0.6686531140038159  0.3747512879423867  0.4445258243078149
  0.6687647630583162  0.6250000000000000  0.9443221762161833
  0.6685307496677596  0.6250000000000000  0.4441083326860248
  0.6688790105072792  0.8752347391758867  0.9444567880868937
  0.6686531140038159  0.8752487420576156  0.4445258243078149