Ga128 Ni1 O192
1.0
24.936138 0.000000 0.000000
0.000000 12.349429 0.000000
-2.783376 0.000000 11.431629
Ni Ga O
1 128 192
direct
0.363276 0.500000 0.479951 Ni
0.077417 0.625793 0.154287 Ga
0.078328 0.625127 0.656965 Ga
0.077626 0.875797 0.154964 Ga
0.078874 0.875045 0.656265 Ga
0.077626 0.124203 0.154964 Ga
0.078874 0.124955 0.656265 Ga
0.077417 0.374207 0.154287 Ga
0.078328 0.374873 0.656965 Ga
0.166976 0.752339 0.340890 Ga
0.170167 0.750494 0.842418 Ga
0.169469 0.000000 0.341628 Ga
0.170484 0.000000 0.842663 Ga
0.166976 0.247661 0.340890 Ga
0.170167 0.249506 0.842418 Ga
0.165383 0.500000 0.341150 Ga
0.170127 0.500000 0.842283 Ga
0.043719 0.750231 0.397817 Ga
0.044116 0.750340 0.896335 Ga
0.044426 0.000000 0.397317 Ga
0.044301 0.000000 0.896006 Ga
0.043719 0.249769 0.397817 Ga
0.044116 0.249660 0.896335 Ga
0.043306 0.500000 0.398405 Ga
0.044175 0.500000 0.896743 Ga
0.203722 0.624907 0.102592 Ga
0.202744 0.626524 0.601533 Ga
0.204955 0.874879 0.103728 Ga
0.204963 0.875294 0.601755 Ga
0.204955 0.125121 0.103728 Ga
0.204963 0.124706 0.601755 Ga
0.203722 0.375093 0.102592 Ga
0.202744 0.373476 0.601533 Ga
0.329012 0.753168 0.154849 Ga
0.329024 0.752246 0.659145 Ga
0.329244 0.000000 0.155961 Ga
0.329460 0.000000 0.655492 Ga
0.329012 0.246832 0.154849 Ga
0.329024 0.247754 0.659145 Ga
0.328737 0.500000 0.163022 Ga
0.323940 0.500000 0.673739 Ga
0.425263 0.629971 0.336064 Ga
0.421901 0.624970 0.843092 Ga
0.421466 0.875916 0.343815 Ga
0.421047 0.875599 0.843122 Ga
0.421466 0.124084 0.343815 Ga
0.421047 0.124401 0.843122 Ga
0.425263 0.370029 0.336064 Ga
0.421901 0.375030 0.843092 Ga
0.284927 0.627945 0.386351 Ga
0.294370 0.625450 0.902011 Ga
0.294871 0.876170 0.396539 Ga
0.294537 0.875405 0.895982 Ga
0.294871 0.123830 0.396539 Ga
0.294537 0.124595 0.895982 Ga
0.284927 0.372055 0.386351 Ga
0.294370 0.374550 0.902011 Ga
0.455814 0.750145 0.100320 Ga
0.455941 0.750992 0.602058 Ga
0.455303 0.000000 0.102666 Ga
0.455717 0.000000 0.602842 Ga
0.455814 0.249855 0.100320 Ga
0.455941 0.249009 0.602058 Ga
0.455504 0.500000 0.101266 Ga
0.466103 0.500000 0.622129 Ga
0.579848 0.124729 0.157078 Ga
0.580390 0.124265 0.658450 Ga
0.580055 0.374594 0.158109 Ga
0.582514 0.373177 0.658876 Ga
0.580055 0.625406 0.158109 Ga
0.582514 0.626823 0.658876 Ga
0.579848 0.875271 0.157078 Ga
0.580390 0.875735 0.658450 Ga
0.671230 0.000000 0.343005 Ga
0.671736 0.000000 0.843733 Ga
0.671535 0.249787 0.342959 Ga
0.671972 0.249196 0.844632 Ga
0.671588 0.500000 0.342973 Ga
0.672046 0.500000 0.844523 Ga
0.671535 0.750213 0.342959 Ga
0.671972 0.750804 0.844632 Ga
0.545542 0.000000 0.397422 Ga
0.544726 0.000000 0.896549 Ga
0.547154 0.247893 0.398399 Ga
0.545600 0.250081 0.896865 Ga
0.547232 0.500000 0.398521 Ga
0.546910 0.500000 0.899620 Ga
0.547154 0.752107 0.398399 Ga
0.545600 0.749919 0.896865 Ga
0.705650 0.124776 0.102961 Ga
0.705328 0.124821 0.602288 Ga
0.705578 0.374885 0.102834 Ga
0.705904 0.374841 0.601912 Ga
0.705578 0.625115 0.102834 Ga
0.705904 0.625159 0.601912 Ga
0.705650 0.875224 0.102961 Ga
0.705328 0.875179 0.602288 Ga
0.829371 0.000000 0.157144 Ga
0.829298 0.000000 0.656644 Ga
0.829301 0.249868 0.157105 Ga
0.829364 0.249834 0.656836 Ga
0.829257 0.500000 0.157028 Ga
0.829430 0.500000 0.656985 Ga
0.829301 0.750132 0.157105 Ga
0.829364 0.750166 0.656836 Ga
0.920272 0.124840 0.342894 Ga
0.920368 0.124877 0.842176 Ga
0.920071 0.374866 0.342736 Ga
0.920408 0.374908 0.842405 Ga
0.920071 0.625134 0.342736 Ga
0.920408 0.625092 0.842405 Ga
0.920272 0.875160 0.342894 Ga
0.920368 0.875123 0.842176 Ga
0.795116 0.124872 0.397528 Ga
0.795520 0.124869 0.897657 Ga
0.795160 0.374936 0.397594 Ga
0.795473 0.374899 0.897690 Ga
0.795160 0.625064 0.397594 Ga
0.795473 0.625101 0.897690 Ga
0.795116 0.875128 0.397528 Ga
0.795520 0.875131 0.897657 Ga
0.954001 0.000000 0.101747 Ga
0.954874 0.000000 0.602215 Ga
0.954103 0.249812 0.101908 Ga
0.954733 0.249787 0.602256 Ga
0.954120 0.500000 0.101992 Ga
0.954537 0.500000 0.602219 Ga
0.954103 0.750188 0.101908 Ga
0.954733 0.750213 0.602256 Ga
0.248434 0.748961 0.131330 O
0.248397 0.749022 0.625598 O
0.248453 0.000000 0.129753 O
0.248618 0.000000 0.626788 O
0.248434 0.251039 0.131330 O
0.248397 0.250978 0.625598 O
0.247498 0.500000 0.130194 O
0.245042 0.500000 0.627361 O
0.001312 0.625218 0.371949 O
0.001760 0.625093 0.871121 O
0.001545 0.875375 0.371952 O
0.001624 0.875252 0.870585 O
0.001545 0.124625 0.371952 O
0.001624 0.124748 0.870585 O
0.001312 0.374782 0.371949 O
0.001760 0.374907 0.871121 O
0.085153 0.750722 0.281171 O
0.086866 0.750444 0.782360 O
0.085989 0.000000 0.281177 O
0.087337 0.000000 0.782378 O
0.085153 0.249278 0.281171 O
0.086866 0.249556 0.782360 O
0.084793 0.500000 0.281482 O
0.086803 0.500000 0.782456 O
0.161550 0.626499 0.216664 O
0.162976 0.625501 0.718651 O
0.162293 0.875793 0.217034 O
0.163789 0.874555 0.717737 O
0.162293 0.124207 0.217034 O
0.163789 0.125445 0.717737 O
0.161550 0.373501 0.216664 O
0.162976 0.374499 0.718651 O
0.167408 0.626661 0.444371 O
0.169143 0.625054 0.945177 O
0.167291 0.876128 0.445563 O
0.169596 0.874887 0.946093 O
0.167291 0.123872 0.445563 O
0.169596 0.125113 0.946093 O
0.167408 0.373339 0.444371 O
0.169143 0.374946 0.945177 O
0.081276 0.750657 0.053414 O
0.081968 0.749694 0.554407 O
0.081373 0.000000 0.053070 O
0.081955 0.000000 0.554437 O
0.081276 0.249343 0.053414 O
0.081968 0.250306 0.554407 O
0.081433 0.500000 0.053927 O
0.082126 0.500000 0.554622 O
0.497805 0.624867 0.128066 O
0.501306 0.629735 0.633715 O
0.497737 0.875011 0.128140 O
0.498284 0.875374 0.628220 O
0.497737 0.124989 0.128140 O
0.498284 0.124626 0.628220 O
0.497805 0.375133 0.128066 O
0.501306 0.370265 0.633715 O
0.248832 0.755479 0.369536 O
0.252356 0.750026 0.871620 O
0.251846 0.000000 0.371749 O
0.252101 0.000000 0.869940 O
0.248832 0.244521 0.369536 O
0.252356 0.249974 0.871620 O
0.245344 0.500000 0.365238 O
0.252616 0.500000 0.871950 O
0.338657 0.616724 0.295077 O
0.335842 0.624888 0.782689 O
0.337157 0.873075 0.281979 O
0.337003 0.874587 0.781306 O
0.337157 0.126925 0.281979 O
0.337003 0.125413 0.781306 O
0.338657 0.383276 0.295077 O
0.335842 0.375112 0.782689 O
0.412728 0.748901 0.215545 O
0.412006 0.746432 0.714251 O
0.412911 0.000000 0.217952 O
0.412923 0.000000 0.716957 O
0.412728 0.251099 0.215545 O
0.412006 0.253568 0.714251 O
0.414371 0.500000 0.220315 O
0.413572 0.500000 0.717201 O
0.419825 0.748172 0.444441 O
0.417636 0.749492 0.943726 O
0.417701 0.000000 0.445890 O
0.418040 0.000000 0.945312 O
0.419825 0.251828 0.444441 O
0.417636 0.250508 0.943726 O
0.432452 0.500000 0.452916 O
0.417088 0.500000 0.944665 O
0.331448 0.624571 0.059643 O
0.327948 0.616845 0.547877 O
0.331937 0.875752 0.053041 O
0.332149 0.873419 0.553279 O
0.331937 0.124248 0.053041 O
0.332149 0.126581 0.553279 O
0.331448 0.375429 0.059643 O
0.327948 0.383155 0.547877 O
0.748351 0.000000 0.128689 O
0.748071 0.000000 0.627826 O
0.748165 0.249897 0.128386 O
0.748131 0.249659 0.627957 O
0.748098 0.500000 0.128387 O
0.748254 0.500000 0.627984 O
0.748165 0.750103 0.128386 O
0.748131 0.750341 0.627957 O
0.502184 0.124991 0.371415 O
0.501565 0.125702 0.870068 O
0.504731 0.373770 0.370949 O
0.502469 0.375928 0.872151 O
0.504731 0.626230 0.370949 O
0.502469 0.624072 0.872151 O
0.502184 0.875009 0.371415 O
0.501565 0.874298 0.870068 O
0.586657 0.000000 0.281489 O
0.586765 0.000000 0.782214 O
0.587217 0.249283 0.281301 O
0.587780 0.249051 0.783019 O
0.587337 0.500000 0.281681 O
0.587444 0.500000 0.782828 O
0.587217 0.750717 0.281301 O
0.587780 0.750949 0.783019 O
0.663242 0.124601 0.217262 O
0.663720 0.124409 0.718373 O
0.663452 0.374641 0.217739 O
0.664303 0.374947 0.718334 O
0.663452 0.625359 0.217739 O
0.664303 0.625053 0.718334 O
0.663242 0.875399 0.217262 O
0.663720 0.875591 0.718373 O
0.667908 0.124995 0.445174 O
0.668347 0.124556 0.946078 O
0.667853 0.375031 0.445313 O
0.668290 0.374839 0.945771 O
0.667853 0.624969 0.445313 O
0.668290 0.625161 0.945771 O
0.667908 0.875005 0.445174 O
0.668347 0.875444 0.946078 O
0.580605 0.000000 0.053696 O
0.581603 0.000000 0.554606 O
0.580900 0.250017 0.054325 O
0.582861 0.248567 0.555299 O
0.581938 0.500000 0.056158 O
0.581277 0.500000 0.556357 O
0.580900 0.749983 0.054325 O
0.582861 0.751433 0.555299 O
0.997131 0.124819 0.127441 O
0.998042 0.125003 0.628032 O
0.997149 0.374898 0.127587 O
0.997761 0.375054 0.628020 O
0.997149 0.625102 0.127587 O
0.997761 0.624946 0.628020 O
0.997131 0.875181 0.127441 O
0.998042 0.874997 0.628032 O
0.752028 0.000000 0.371734 O
0.752500 0.000000 0.872150 O
0.752134 0.249964 0.371767 O
0.752486 0.249867 0.872121 O
0.752161 0.500000 0.371826 O
0.752519 0.500000 0.872150 O
0.752134 0.750036 0.371767 O
0.752486 0.750133 0.872121 O
0.836645 0.125043 0.282067 O
0.836738 0.125005 0.781608 O
0.836588 0.375001 0.282018 O
0.836734 0.374951 0.781758 O
0.836588 0.624999 0.282018 O
0.836734 0.625049 0.781758 O
0.836645 0.874957 0.282067 O
0.836738 0.874995 0.781608 O
0.912995 0.000000 0.218036 O
0.913185 0.000000 0.717433 O
0.913019 0.249973 0.218033 O
0.913201 0.250029 0.717608 O
0.912991 0.500000 0.218002 O
0.913169 0.500000 0.717745 O
0.913019 0.750027 0.218033 O
0.913201 0.749971 0.717608 O
0.917938 0.000000 0.445466 O
0.917778 0.000000 0.944620 O
0.918036 0.249886 0.445391 O
0.917975 0.249916 0.944717 O
0.917980 0.500000 0.445305 O
0.918015 0.500000 0.944794 O
0.918036 0.750114 0.445391 O
0.917975 0.750084 0.944717 O
0.832072 0.125002 0.054729 O
0.831851 0.124988 0.554385 O
0.831956 0.374966 0.054775 O
0.831779 0.374963 0.554523 O
0.831956 0.625034 0.054775 O
0.831779 0.625037 0.554523 O
0.832072 0.874998 0.054729 O
0.831851 0.875012 0.554385 O
