Ga128 Fe1 O192
1.0
24.936138 0.000000 0.000000
0.000000 12.349429 0.000000
-2.783376 0.000000 11.431629
Fe Ga O
1 128 192
direct
0.361679 0.625000 0.447292 Fe
0.074549 0.625000 0.156401 Ga
0.078229 0.625000 0.654532 Ga
0.078236 0.875946 0.155079 Ga
0.077689 0.875685 0.655878 Ga
0.078395 0.125000 0.156650 Ga
0.078552 0.125000 0.657252 Ga
0.078236 0.374055 0.155081 Ga
0.077689 0.374315 0.655879 Ga
0.166588 0.755071 0.347736 Ga
0.169368 0.752198 0.835207 Ga
0.169951 0.001251 0.342337 Ga
0.170026 0.000371 0.843683 Ga
0.169951 0.248750 0.342338 Ga
0.170026 0.249629 0.843685 Ga
0.166589 0.494929 0.347737 Ga
0.169368 0.497802 0.835208 Ga
0.043076 0.750009 0.397268 Ga
0.045124 0.749657 0.897219 Ga
0.044427 0.000337 0.397459 Ga
0.044204 0.000134 0.896919 Ga
0.044427 0.249663 0.397460 Ga
0.044204 0.249866 0.896920 Ga
0.043077 0.499991 0.397269 Ga
0.045124 0.500343 0.897220 Ga
0.197307 0.625000 0.083251 Ga
0.205127 0.624999 0.599720 Ga
0.203726 0.874042 0.103574 Ga
0.204353 0.876567 0.603222 Ga
0.205144 0.125000 0.103504 Ga
0.204731 0.125001 0.603233 Ga
0.203726 0.375958 0.103575 Ga
0.204352 0.373433 0.603223 Ga
0.329056 0.750049 0.153394 Ga
0.327721 0.752045 0.661606 Ga
0.328411 0.000239 0.156235 Ga
0.329055 0.000317 0.655722 Ga
0.328411 0.249761 0.156236 Ga
0.329055 0.249684 0.655723 Ga
0.329056 0.499950 0.153396 Ga
0.327721 0.497955 0.661606 Ga
0.435179 0.625000 0.325314 Ga
0.420794 0.625000 0.841634 Ga
0.420533 0.875823 0.341291 Ga
0.421071 0.875543 0.841995 Ga
0.419907 0.125000 0.343138 Ga
0.420470 0.125000 0.842775 Ga
0.420532 0.374177 0.341292 Ga
0.421071 0.374457 0.841996 Ga
0.257497 0.624998 0.301947 Ga
0.294094 0.625000 0.896881 Ga
0.294167 0.872984 0.398014 Ga
0.293869 0.874866 0.896449 Ga
0.293841 0.125002 0.397049 Ga
0.294458 0.125000 0.896058 Ga
0.294167 0.377017 0.398014 Ga
0.293869 0.375134 0.896450 Ga
0.457015 0.751051 0.098489 Ga
0.457714 0.749875 0.607000 Ga
0.454770 0.000255 0.101767 Ga
0.454920 0.000072 0.602364 Ga
0.454770 0.249745 0.101768 Ga
0.454920 0.249928 0.602365 Ga
0.457014 0.498949 0.098489 Ga
0.457714 0.500125 0.607000 Ga
0.579092 0.125000 0.157793 Ga
0.579446 0.125000 0.657189 Ga
0.580033 0.373957 0.157332 Ga
0.580447 0.373554 0.659483 Ga
0.580392 0.625000 0.157646 Ga
0.581440 0.625000 0.659868 Ga
0.580033 0.876043 0.157332 Ga
0.580447 0.876446 0.659483 Ga
0.670856 0.000302 0.343573 Ga
0.671346 0.000367 0.843649 Ga
0.670856 0.249698 0.343573 Ga
0.671346 0.249633 0.843649 Ga
0.672002 0.499625 0.342633 Ga
0.671583 0.499583 0.844317 Ga
0.672002 0.750375 0.342633 Ga
0.671583 0.750417 0.844317 Ga
0.544140 0.000277 0.397270 Ga
0.544854 0.000349 0.897271 Ga
0.544140 0.249723 0.397270 Ga
0.544854 0.249651 0.897271 Ga
0.550424 0.495421 0.401183 Ga
0.545313 0.499941 0.897513 Ga
0.550424 0.754579 0.401183 Ga
0.545313 0.750059 0.897513 Ga
0.704946 0.125000 0.103002 Ga
0.705136 0.125000 0.602744 Ga
0.705475 0.374410 0.102681 Ga
0.705188 0.374834 0.602650 Ga
0.705578 0.625000 0.102375 Ga
0.705280 0.625000 0.602120 Ga
0.705475 0.875590 0.102681 Ga
0.705188 0.875166 0.602650 Ga
0.829181 0.000270 0.157058 Ga
0.829106 0.000043 0.657216 Ga
0.829181 0.249730 0.157058 Ga
0.829106 0.249957 0.657216 Ga
0.828915 0.499718 0.157037 Ga
0.829076 0.499902 0.657323 Ga
0.828915 0.750282 0.157037 Ga
0.829076 0.750098 0.657323 Ga
0.920372 0.125000 0.342612 Ga
0.920346 0.125000 0.842881 Ga
0.920102 0.374563 0.342626 Ga
0.920533 0.374942 0.842289 Ga
0.919738 0.625000 0.342592 Ga
0.920517 0.625000 0.842137 Ga
0.920102 0.875437 0.342626 Ga
0.920533 0.875058 0.842289 Ga
0.794936 0.125000 0.397656 Ga
0.795178 0.125000 0.897859 Ga
0.795087 0.374467 0.397834 Ga
0.795162 0.374787 0.897585 Ga
0.795255 0.625000 0.398070 Ga
0.795178 0.625000 0.897618 Ga
0.795087 0.875533 0.397834 Ga
0.795162 0.875213 0.897585 Ga
0.954695 -0.000009 0.102401 Ga
0.954344 0.000393 0.602177 Ga
0.954695 0.250009 0.102401 Ga
0.954344 0.249607 0.602177 Ga
0.953170 0.499012 0.101348 Ga
0.954445 0.499972 0.602240 Ga
0.953170 0.750988 0.101348 Ga
0.954445 0.750028 0.602240 Ga
0.245871 0.744210 0.131857 O
0.246720 0.751331 0.630361 O
0.247635 0.998375 0.129568 O
0.248076 0.000235 0.628202 O
0.247635 0.251625 0.129569 O
0.248076 0.249765 0.628203 O
0.245870 0.505790 0.131856 O
0.246720 0.498669 0.630361 O
0.000953 0.625000 0.369883 O
0.002258 0.625000 0.872682 O
0.001536 0.875532 0.370415 O
0.002229 0.874249 0.873006 O
0.001634 0.125000 0.371494 O
0.001606 0.125000 0.871560 O
0.001536 0.374468 0.370416 O
0.002229 0.375751 0.873007 O
0.085752 0.747079 0.280896 O
0.085869 0.751273 0.779707 O
0.086223 0.000222 0.281718 O
0.086670 1.000237 0.782750 O
0.086223 0.249778 0.281719 O
0.086670 0.249763 0.782751 O
0.085753 0.502921 0.280896 O
0.085869 0.498726 0.779708 O
0.171782 0.625001 0.223869 O
0.162512 0.625000 0.713855 O
0.161810 0.875586 0.218314 O
0.162612 0.876065 0.717794 O
0.163149 0.125000 0.218118 O
0.163100 0.125000 0.718459 O
0.161810 0.374414 0.218316 O
0.162612 0.373935 0.717795 O
0.165987 0.625000 0.444521 O
0.162874 0.625000 0.932570 O
0.165777 0.878565 0.447528 O
0.168562 0.873475 0.945796 O
0.168430 0.125000 0.445839 O
0.168719 0.125000 0.946676 O
0.165777 0.371436 0.447529 O
0.168562 0.376525 0.945797 O
0.083142 0.747449 0.055729 O
0.081120 0.750640 0.553179 O
0.081714 0.000209 0.053895 O
0.081293 0.000350 0.554697 O
0.081714 0.249791 0.053897 O
0.081293 0.249650 0.554698 O
0.083142 0.502550 0.055730 O
0.081120 0.499359 0.553180 O
0.498313 0.625000 0.132523 O
0.499865 0.625000 0.628967 O
0.498136 0.876189 0.129625 O
0.498207 0.875542 0.626253 O
0.497262 0.125000 0.128769 O
0.497441 0.125000 0.627057 O
0.498136 0.373811 0.129626 O
0.498207 0.374458 0.626254 O
0.247850 0.752929 0.374957 O
0.251070 0.749536 0.874250 O
0.251760 0.998874 0.371782 O
0.251633 0.999943 0.871722 O
0.251760 0.251127 0.371783 O
0.251633 0.250057 0.871723 O
0.247850 0.497074 0.374955 O
0.251070 0.500464 0.874250 O
0.329619 0.625000 0.273626 O
0.336948 0.625000 0.786028 O
0.336809 0.869585 0.282766 O
0.336457 0.874320 0.782559 O
0.336329 0.124999 0.281980 O
0.336627 0.125000 0.781400 O
0.336808 0.380415 0.282767 O
0.336457 0.375680 0.782559 O
0.414627 0.747006 0.216848 O
0.413433 0.749821 0.717204 O
0.412188 0.998209 0.216972 O
0.412751 0.999355 0.717045 O
0.412188 0.251792 0.216973 O
0.412751 0.250645 0.717046 O
0.414626 0.502993 0.216849 O
0.413433 0.500179 0.717205 O
0.419001 0.740826 0.444676 O
0.418321 0.750317 0.944337 O
0.417633 0.998346 0.444886 O
0.417620 0.999675 0.944950 O
0.417633 0.251654 0.444887 O
0.417620 0.250325 0.944951 O
0.419001 0.509174 0.444676 O
0.418321 0.499683 0.944337 O
0.331911 0.624999 0.053504 O
0.327958 0.625000 0.565712 O
0.330749 0.874063 0.054391 O
0.331630 0.873418 0.554442 O
0.330819 0.125000 0.054076 O
0.331834 0.125000 0.553410 O
0.330749 0.375937 0.054392 O
0.331630 0.376582 0.554442 O
0.748037 0.000518 0.128506 O
0.747902 0.000091 0.628282 O
0.748037 0.249482 0.128506 O
0.747902 0.249909 0.628282 O
0.747937 0.499728 0.128563 O
0.747829 0.499906 0.628042 O
0.747937 0.750272 0.128563 O
0.747829 0.750094 0.628042 O
0.500647 0.125000 0.370920 O
0.501429 0.125000 0.870910 O
0.501731 0.377357 0.373392 O
0.501987 0.375045 0.870751 O
0.510545 0.625000 0.377113 O
0.502005 0.625000 0.872030 O
0.501731 0.872643 0.373392 O
0.501987 0.874955 0.870751 O
0.586124 0.999991 0.282534 O
0.586535 0.000266 0.782007 O
0.586124 0.250009 0.282534 O
0.586535 0.249734 0.782007 O
0.588003 0.498413 0.281266 O
0.587088 0.499676 0.782911 O
0.588003 0.751587 0.281266 O
0.587088 0.750324 0.782911 O
0.662695 0.125000 0.217951 O
0.663004 0.125000 0.717792 O
0.663401 0.373982 0.217605 O
0.663644 0.374016 0.718848 O
0.663512 0.625000 0.217412 O
0.663949 0.625000 0.718927 O
0.663401 0.876018 0.217605 O
0.663644 0.875984 0.718848 O
0.667829 0.125000 0.445730 O
0.667934 0.125000 0.945725 O
0.667756 0.375235 0.445474 O
0.668041 0.374666 0.945914 O
0.667805 0.625000 0.444873 O
0.668091 0.625000 0.945787 O
0.667756 0.874765 0.445474 O
0.668041 0.875334 0.945914 O
0.581001 0.000545 0.054481 O
0.581036 0.000204 0.554094 O
0.581001 0.249455 0.054481 O
0.581036 0.249796 0.554094 O
0.580736 0.499853 0.054965 O
0.583637 0.498584 0.558171 O
0.580736 0.750147 0.054965 O
0.583637 0.751416 0.558171 O
0.997693 0.125000 0.127950 O
0.997596 0.125000 0.628614 O
0.997727 0.375741 0.127462 O
0.997217 0.374693 0.628050 O
0.995621 0.625000 0.126659 O
0.997536 0.625000 0.627587 O
0.997727 0.874259 0.127462 O
0.997217 0.875307 0.628050 O
0.751844 0.000119 0.372005 O
0.752175 0.000169 0.872105 O
0.751844 0.249881 0.372005 O
0.752175 0.249831 0.872105 O
0.752339 0.499907 0.371885 O
0.752246 0.499887 0.872188 O
0.752339 0.750093 0.371885 O
0.752246 0.750113 0.872188 O
0.836659 0.125000 0.282175 O
0.836740 0.125000 0.782275 O
0.836513 0.374692 0.282128 O
0.836638 0.374947 0.781943 O
0.836497 0.625000 0.282139 O
0.836586 0.625000 0.781874 O
0.836513 0.875308 0.282128 O
0.836638 0.875053 0.781943 O
0.913128 0.999906 0.217754 O
0.913103 0.999836 0.718122 O
0.913128 0.250094 0.217754 O
0.913103 0.250164 0.718122 O
0.912653 0.499590 0.217859 O
0.913164 0.500163 0.717970 O
0.912653 0.750410 0.217859 O
0.913164 0.749837 0.717970 O
0.917952 0.000167 0.445153 O
0.918317 0.999706 0.945315 O
0.917952 0.249833 0.445153 O
0.918317 0.250294 0.945315 O
0.918147 0.499825 0.445063 O
0.917668 0.499927 0.944334 O
0.918147 0.750175 0.445063 O
0.917668 0.750073 0.944334 O
0.832069 0.125000 0.054719 O
0.831777 0.125000 0.554753 O
0.831760 0.374864 0.054711 O
0.831766 0.374991 0.554791 O
0.831674 0.625000 0.054872 O
0.831789 0.625000 0.554935 O
0.831760 0.875136 0.054711 O
0.831766 0.875009 0.554791 O
