Ga128 Cu1 O192
1.0
24.936138 0.000000 0.000000
0.000000 12.349429 0.000000
-2.783376 0.000000 11.431629
Cu Ga O
1 128 192
direct
0.365685 0.625000 0.442444 Cu
0.077401 0.625000 0.156939 Ga
0.076683 0.625000 0.660196 Ga
0.077113 0.877337 0.154297 Ga
0.078754 0.875026 0.657592 Ga
0.078010 0.125000 0.156349 Ga
0.078732 0.125000 0.656456 Ga
0.077113 0.372663 0.154297 Ga
0.078754 0.374974 0.657592 Ga
0.166571 0.758349 0.335162 Ga
0.169335 0.750788 0.847656 Ga
0.170059 0.001768 0.342375 Ga
0.170184 0.000547 0.842637 Ga
0.170059 0.248232 0.342375 Ga
0.170184 0.249452 0.842637 Ga
0.166571 0.491651 0.335162 Ga
0.169335 0.499212 0.847656 Ga
0.043470 0.750105 0.400109 Ga
0.043519 0.750313 0.898689 Ga
0.044515 0.000101 0.397703 Ga
0.044103 0.000411 0.896306 Ga
0.044515 0.249899 0.397703 Ga
0.044103 0.249589 0.896306 Ga
0.043470 0.499895 0.400109 Ga
0.043519 0.499687 0.898689 Ga
0.205138 0.625000 0.106840 Ga
0.202332 0.625000 0.617878 Ga
0.205295 0.875493 0.103246 Ga
0.203469 0.875897 0.601978 Ga
0.204991 0.125000 0.102853 Ga
0.204893 0.125000 0.603194 Ga
0.205295 0.374507 0.103246 Ga
0.203469 0.374103 0.601978 Ga
0.328954 0.749421 0.157528 Ga
0.328720 0.754843 0.667971 Ga
0.329271 0.000431 0.156638 Ga
0.328692 0.000833 0.655942 Ga
0.329271 0.249569 0.156638 Ga
0.328692 0.249167 0.655942 Ga
0.328954 0.500579 0.157528 Ga
0.328720 0.495157 0.667971 Ga
0.430018 0.625000 0.308923 Ga
0.421950 0.625000 0.840214 Ga
0.421297 0.877083 0.341252 Ga
0.421703 0.876989 0.842620 Ga
0.420768 0.125000 0.343576 Ga
0.420716 0.125000 0.843307 Ga
0.421297 0.372917 0.341252 Ga
0.421703 0.373011 0.842620 Ga
0.258145 0.625000 0.440443 Ga
0.293996 0.625000 0.899173 Ga
0.295101 0.874465 0.397365 Ga
0.293851 0.874979 0.899143 Ga
0.294175 0.125000 0.395987 Ga
0.294667 0.125000 0.896963 Ga
0.295101 0.375535 0.397365 Ga
0.293851 0.375021 0.899143 Ga
0.457999 0.752566 0.095484 Ga
0.458231 0.750869 0.605411 Ga
0.455436 0.000841 0.102534 Ga
0.455374 0.000438 0.602775 Ga
0.455436 0.249159 0.102534 Ga
0.455374 0.249562 0.602775 Ga
0.457999 0.497434 0.095484 Ga
0.458231 0.499131 0.605411 Ga
0.579904 0.125000 0.157768 Ga
0.579985 0.125000 0.657999 Ga
0.580616 0.373803 0.157431 Ga
0.580714 0.373931 0.658809 Ga
0.580468 0.625000 0.157981 Ga
0.581130 0.625000 0.658985 Ga
0.580616 0.876197 0.157431 Ga
0.580714 0.876069 0.658809 Ga
0.671155 0.000237 0.344049 Ga
0.671522 0.000275 0.844068 Ga
0.671155 0.249763 0.344049 Ga
0.671522 0.249725 0.844068 Ga
0.671565 0.499826 0.343509 Ga
0.671657 0.499771 0.844210 Ga
0.671565 0.750174 0.343509 Ga
0.671657 0.750229 0.844210 Ga
0.545177 1.000447 0.397877 Ga
0.545425 0.000513 0.897657 Ga
0.545177 0.249553 0.397877 Ga
0.545425 0.249487 0.897657 Ga
0.547894 0.497430 0.399167 Ga
0.545971 0.499747 0.897533 Ga
0.547894 0.752570 0.399167 Ga
0.545971 0.750253 0.897533 Ga
0.705173 0.125000 0.103206 Ga
0.705345 0.125000 0.603113 Ga
0.705532 0.374765 0.102937 Ga
0.705403 0.374850 0.602828 Ga
0.705492 0.625000 0.102854 Ga
0.705409 0.625000 0.602566 Ga
0.705532 0.875235 0.102937 Ga
0.705403 0.875150 0.602828 Ga
0.829126 0.000182 0.157632 Ga
0.829196 0.000090 0.657070 Ga
0.829126 0.249818 0.157632 Ga
0.829196 0.249910 0.657070 Ga
0.829116 0.499853 0.157646 Ga
0.829045 0.499891 0.657545 Ga
0.829116 0.750147 0.157646 Ga
0.829045 0.750109 0.657545 Ga
0.920430 0.125000 0.343408 Ga
0.920209 0.125000 0.842547 Ga
0.920169 0.374700 0.343208 Ga
0.920090 0.374710 0.842981 Ga
0.919923 0.625000 0.343347 Ga
0.920014 0.625000 0.843277 Ga
0.920169 0.875300 0.343208 Ga
0.920090 0.875290 0.842981 Ga
0.794917 0.125000 0.397845 Ga
0.795313 0.125000 0.898087 Ga
0.794998 0.374854 0.398039 Ga
0.795207 0.374853 0.898188 Ga
0.795081 0.625000 0.398317 Ga
0.795189 0.625000 0.898391 Ga
0.794998 0.875146 0.398039 Ga
0.795207 0.875147 0.898188 Ga
0.953988 0.000389 0.102405 Ga
0.954896 0.000008 0.602836 Ga
0.953988 0.249611 0.102405 Ga
0.954896 0.249992 0.602836 Ga
0.954040 0.499900 0.102882 Ga
0.954005 0.499423 0.602911 Ga
0.954040 0.750100 0.102882 Ga
0.954005 0.750577 0.602911 Ga
0.247948 0.750111 0.128155 O
0.246628 0.748757 0.625771 O
0.248322 0.000102 0.129702 O
0.247670 0.999358 0.628233 O
0.248322 0.249898 0.129702 O
0.247670 0.250642 0.628233 O
0.247948 0.499889 0.128155 O
0.246628 0.501243 0.625771 O
0.001283 0.625000 0.373239 O
0.001359 0.625000 0.872555 O
0.001694 0.875245 0.372674 O
0.001418 0.875517 0.872157 O
0.001875 0.125000 0.372078 O
0.001394 0.125000 0.870712 O
0.001694 0.374755 0.372674 O
0.001418 0.374483 0.872157 O
0.085950 0.748594 0.284876 O
0.086041 0.750413 0.784410 O
0.086261 0.000264 0.281652 O
0.086744 1.000041 0.782389 O
0.086261 0.249736 0.281652 O
0.086744 0.249959 0.782389 O
0.085950 0.501406 0.284876 O
0.086041 0.499587 0.784410 O
0.162134 0.625000 0.220005 O
0.160924 0.625000 0.725311 O
0.161656 0.877041 0.215339 O
0.162890 0.874204 0.718739 O
0.163064 0.125000 0.217969 O
0.163155 0.125000 0.718082 O
0.161656 0.372959 0.215339 O
0.162890 0.375796 0.718739 O
0.179848 0.625000 0.450218 O
0.168271 0.625000 0.949619 O
0.166670 0.876958 0.445124 O
0.168315 0.876177 0.946806 O
0.168478 0.125000 0.445972 O
0.168558 0.125000 0.945961 O
0.166670 0.373042 0.445124 O
0.168315 0.373823 0.946806 O
0.080797 0.750359 0.056011 O
0.082720 0.748123 0.556199 O
0.081125 0.000969 0.053445 O
0.081950 0.999635 0.554750 O
0.081125 0.249031 0.053445 O
0.081950 0.250365 0.554750 O
0.080797 0.499641 0.056011 O
0.082720 0.501877 0.556199 O
0.498230 0.625000 0.129327 O
0.499572 0.625000 0.629689 O
0.499203 0.877403 0.127399 O
0.498745 0.876270 0.628366 O
0.498256 0.125000 0.128603 O
0.497997 0.125000 0.628719 O
0.499203 0.372597 0.127399 O
0.498745 0.373730 0.628366 O
0.248436 0.754962 0.364403 O
0.251104 0.749762 0.869528 O
0.251925 0.999209 0.371406 O
0.251744 0.000133 0.871737 O
0.251925 0.250791 0.371406 O
0.251744 0.249867 0.871737 O
0.248436 0.495038 0.364403 O
0.251104 0.500238 0.869528 O
0.343260 0.625000 0.275277 O
0.336176 0.625000 0.783239 O
0.337896 0.872466 0.283665 O
0.336614 0.875147 0.784360 O
0.336945 0.125000 0.282145 O
0.336583 0.125000 0.781336 O
0.337896 0.377534 0.283665 O
0.336614 0.374853 0.784360 O
0.416524 0.754332 0.212713 O
0.412512 0.747902 0.714127 O
0.413174 -0.000104 0.217580 O
0.412642 0.998983 0.717007 O
0.413174 0.250104 0.217580 O
0.412642 0.251017 0.717007 O
0.416524 0.495668 0.212713 O
0.412512 0.502098 0.714127 O
0.418912 0.745772 0.446095 O
0.418792 0.750296 0.941525 O
0.417988 0.999276 0.445776 O
0.418007 0.000121 0.945520 O
0.417988 0.250724 0.445776 O
0.418007 0.249879 0.945520 O
0.418912 0.504228 0.446095 O
0.418792 0.499704 0.941525 O
0.332292 0.625000 0.053730 O
0.324093 0.625000 0.557710 O
0.331472 0.874316 0.055511 O
0.330484 0.872333 0.555545 O
0.331769 0.125000 0.054045 O
0.331275 0.125000 0.553357 O
0.331472 0.375684 0.055511 O
0.330484 0.377667 0.555545 O
0.748064 0.000243 0.128860 O
0.748057 0.000039 0.628534 O
0.748064 0.249757 0.128860 O
0.748057 0.249961 0.628534 O
0.748051 0.499950 0.128903 O
0.747963 0.499980 0.628560 O
0.748051 0.750050 0.128903 O
0.747963 0.750020 0.628560 O
0.501641 0.125000 0.371988 O
0.501703 0.125000 0.871405 O
0.502069 0.375728 0.373409 O
0.502322 0.374968 0.870699 O
0.506055 0.625000 0.373419 O
0.502698 0.625000 0.871346 O
0.502069 0.874272 0.373409 O
0.502322 0.875032 0.870699 O
0.586749 1.000052 0.282576 O
0.587010 0.000271 0.782406 O
0.586749 0.249948 0.282576 O
0.587010 0.249729 0.782406 O
0.587378 0.499251 0.281659 O
0.587298 0.499668 0.782429 O
0.587378 0.750749 0.281659 O
0.587298 0.750332 0.782429 O
0.663257 0.125000 0.218560 O
0.663434 0.125000 0.718389 O
0.663539 0.374665 0.218122 O
0.663698 0.374651 0.718592 O
0.663454 0.625000 0.218001 O
0.663769 0.625000 0.718539 O
0.663539 0.875335 0.218122 O
0.663698 0.875349 0.718592 O
0.668037 0.125000 0.446158 O
0.668288 0.125000 0.946032 O
0.667881 0.375163 0.445872 O
0.668228 0.374929 0.946022 O
0.667792 0.625000 0.445616 O
0.668147 0.625000 0.945940 O
0.667881 0.874837 0.445872 O
0.668228 0.875071 0.946022 O
0.582169 0.000707 0.054399 O
0.581691 0.000302 0.554800 O
0.582169 0.249293 0.054399 O
0.581691 0.249698 0.554800 O
0.581218 0.499885 0.054963 O
0.582200 0.499378 0.556257 O
0.581218 0.750115 0.054963 O
0.582200 0.750622 0.556257 O
0.997272 0.125000 0.128200 O
0.997999 0.125000 0.628386 O
0.997101 0.374742 0.128985 O
0.997940 0.375407 0.628427 O
0.997107 0.625000 0.129481 O
0.996832 0.625000 0.628880 O
0.997101 0.875258 0.128985 O
0.997940 0.874593 0.628427 O
0.751966 0.999977 0.372280 O
0.752299 0.000103 0.872375 O
0.751966 0.250023 0.372280 O
0.752299 0.249897 0.872375 O
0.752122 0.500029 0.372332 O
0.752305 0.499959 0.872497 O
0.752122 0.749971 0.372332 O
0.752305 0.750041 0.872497 O
0.836667 0.125000 0.282676 O
0.836683 0.125000 0.782106 O
0.836573 0.374899 0.282624 O
0.836596 0.374942 0.782369 O
0.836561 0.625000 0.282747 O
0.836596 0.625000 0.782616 O
0.836573 0.875101 0.282624 O
0.836596 0.875058 0.782369 O
0.912994 0.000028 0.218619 O
0.913131 0.999873 0.717923 O
0.912994 0.249972 0.218619 O
0.913131 0.250127 0.717923 O
0.912944 0.499901 0.218798 O
0.912913 0.499851 0.718619 O
0.912944 0.750099 0.218798 O
0.912913 0.750149 0.718619 O
0.918223 0.000059 0.445945 O
0.917774 0.000196 0.945369 O
0.918223 0.249941 0.445945 O
0.917774 0.249804 0.945369 O
0.917998 0.499752 0.445814 O
0.918008 0.499837 0.945759 O
0.917998 0.750248 0.445814 O
0.918008 0.750163 0.945759 O
0.831998 0.125000 0.055182 O
0.831746 0.125000 0.554761 O
0.831843 0.374936 0.055286 O
0.831738 0.375112 0.554991 O
0.831883 0.625000 0.055436 O
0.831776 0.625000 0.555285 O
0.831843 0.875064 0.055286 O
0.831738 0.874888 0.554991 O
