Co Ga  O
   1.00000000000000
    24.9361381530999999    0.0000000000000000    0.0000000000000000
     0.0000000000000000   12.3494291306000008    0.0000000000000000
    -2.7833760077999998    0.0000000000000000   11.4316290933999998
   Cu   Ga   O
     1   128   192
Direct
  0.3383581711679792  0.6250000000000000  0.4280598859015665
  0.2504023935884555  0.6250000000000000  0.2423832904354223
  0.4276616474407200  0.6250000000000000  0.3334626748497176
  0.4209057331387868  0.6250000000000000  0.8443958090423144
  0.4202885511189688  0.8755582747697537  0.3424221962203414
  0.4221017982509785  0.8755668861370041  0.8427512668580005
  0.4207281914204374  0.1250000000000000  0.3427538843904658
  0.4209343850719275  0.1250000000000000  0.8420187452658142
  0.4202885511189688  0.3744416952302441  0.3424221962203414
  0.4221018572509799  0.3744331138629958  0.8427512668580005
  0.3312347264068495  0.4980777579482529  0.1494458700675594
  0.3293718469196690  0.4976838433235800  0.6635469144926763
  0.3312347264068495  0.7519222120517516  0.1494458700675594
  0.3293718469196690  0.7523161266764246  0.6635469144926763
  0.3293639959456980  0.0005334954494018  0.1575937159168352
  0.3295502005426936  0.9999355828184309  0.6547438585396982
  0.3293639959456980  0.2494665045505981  0.1575937159168352
  0.3295502005426936  0.2500643581815675  0.6547438585396982
  0.4572097940085701  0.4992570062112662  0.1011353567717516
  0.4548008192446329  0.5007559386618070  0.6033130747889296
  0.4572097940085701  0.7507429937887338  0.1011353567717516
  0.4548008192446329  0.7492441203381943  0.6033130747889296
  0.4551466633342863  0.0003883781707408  0.1018403249492976
  0.4554051273124025 -0.0000798345643548  0.6020927734394099
  0.4551466633342863  0.2496116168292623  0.1018403249492976
  0.4554051273124025  0.2500798285643543  0.6020927734394099
  0.2942744515048992  0.6250000000000000  0.8997275111129203
  0.2942573696157911  0.8679743400909634  0.3949838923667854
  0.2950960170470094  0.8762844012519155  0.8959472104261623
  0.2943697224902855  0.1250000000000000  0.3963624506300077
  0.2952371325756462  0.1250000149999977  0.8964651374303648
  0.2942573696157911  0.3820256889090357  0.3949838923667854
  0.2950960470470048  0.3737155387480798  0.8959472104261623
  0.1716920248116851  0.4975664147062369  0.3497693032924645
  0.1720647871595494  0.4971148550995294  0.8377474906752549
  0.1716920248116851  0.7524335852937628  0.3497692742924657
  0.1720647721595517  0.7528852039004718  0.8377474906752549
  0.1720266133949191  0.0008581060862187  0.3448245661906167
  0.1709170685402722 -0.0000137988818566  0.8467407442733361
  0.1720266133949191  0.2491419139137829  0.3448245951906155
  0.1709170535402674  0.2500138288818519  0.8467407442733361
  0.0648877340461656  0.6250000000000000  0.1805998495541166
  0.0796908387109338  0.6250001189999992  0.6583428357142463
  0.0803045486303508  0.8776980459903923  0.1615228321254806
  0.0787351989370397  0.8760764028838869  0.6587418041350925
  0.0801733493018951  0.1250000000000000  0.1580504632067687
  0.0795457760865199  0.1250001339999969  0.6588510853704231
  0.0803045486303508  0.3723019840096102  0.1615228321254806
  0.0787352139370445  0.3739238061161128  0.6587418041350925
  0.1418950343715989  0.6250000000000000  0.0598784297430901
  0.2060820508304652  0.6250001789999970  0.6001609798984199
  0.2079619984270563  0.8686230481328272  0.1052414212227111
  0.2054744376572855  0.8760162705421431  0.6045934815342663
  0.2062037756571472  0.1250000000000000  0.1041941688898363
  0.2051471095593934  0.1250000450000002  0.6052418473007704
  0.2079619984270563  0.3813769818671753  0.1052414062227063
  0.2054745116572845  0.3739839384578566  0.6045935415342713
  0.0428655169598847  0.4983340571614520  0.4025156679380118
  0.0424992384556764  0.5002663085318144  0.8925255473016425
  0.0428655279598821  0.7516659428385482  0.4025156979380143
  0.0424992494556737  0.7497337214681810  0.8925255473016425
  0.0451689229473974  0.0006219299586854  0.3991468718478346
  0.0449046688658389  0.0001140385419733  0.8986830301406485
  0.0451689349473984  0.2493780850413123  0.3991469318478325
  0.0449046728658392  0.2498859674580273  0.8986830301406485
  0.9208043217292283  0.1250000000000000  0.3424931707887414
  0.9204986996638373  0.1250000000000000  0.8435568227902334
  0.9198921698751343  0.3738230904183553  0.3429573148616180
  0.9195158097843656  0.3737710106842793  0.8410473971055736
  0.9196914954362156  0.6250000000000000  0.3423901219073204
  0.9185512068737746  0.6250000000000000  0.8405796923216029
  0.9198921698751343  0.8761769395816476  0.3429573148616180
  0.9195158097843656  0.8762289893157209  0.8410473971055736
  0.8291551426486088  0.0002906462140626  0.1562955372202834
  0.8287379445866980  0.0002776018342889  0.6566238639381727
  0.8291551426486088  0.2497093637859382  0.1562955222202786
  0.8287380035866994  0.2497224001657113  0.6566238639381727
  0.8280030640342324  0.4996509435775635  0.1573302154737639
  0.8284215636919704  0.4996489529898490  0.6559441296111873
  0.8280030640342324  0.7503490864224388  0.1573302154737639
  0.8284215636919704  0.7503510170101483  0.6559441296111873
  0.9562982654473986  0.9998206017180444  0.1033216142028077
  0.9550113660388929  0.0004101528122893  0.6030831671532508
  0.9562982654473986  0.2501793982819555  0.1033216142028077
  0.9550114260388908  0.2495898561877079  0.6030831671532508
  0.9498573943723951  0.4955879172322468  0.0991209112772819
  0.9547561053105766  0.5001185812000899  0.6029615546171752
  0.9498573943723951  0.7544121427677510  0.0991209112772819
  0.9547561053105766  0.7498814187999101  0.6029615546171752
  0.7950839390307496  0.1250000000000000  0.3972214782854849
  0.7947414481864070  0.1250000149999977  0.8974137083081378
  0.7945283847537332  0.3743476903089981  0.3975204880896084
  0.7946943478746640  0.3748685401186961  0.8974154293384407
  0.7945161446662683  0.6250000000000000  0.3978131103835713
  0.7946117459592896  0.6250000000000000  0.8979341861040157
  0.7945283847537332  0.8756523396910048  0.3975204880896084
  0.7946943478746640  0.8751314898813063  0.8974153703384393
  0.6706232976524824  0.0003609541239236  0.3429593777926733
  0.6707408599544513  0.0001086981280397  0.8424244053609909
  0.6706232976524824  0.2496390748760751  0.3429593777926733
  0.6707408599544513  0.2498913418719565  0.8424244053609909
  0.6711331906276017  0.4996499135891773  0.3425500921514780
  0.6707834166264171  0.4998218479573278  0.8425190473341696
  0.6711331906276017  0.7503500864108226  0.3425500921514780
  0.6707834166264171  0.7501781520426726  0.8425190473341696
  0.5793118379039461  0.1250000149999977  0.1573459154755371
  0.5793366793669135  0.1250000000000000  0.6563489999256918
  0.5798775423323970  0.3742012066961170  0.1567678704682005
  0.5793561321518226  0.3747753409289762  0.6573826524969149
  0.5801261182767282  0.6250000000000000  0.1567565732922936
  0.5796569768909292  0.6250000000000000  0.6576001945685902
  0.5798775423323970  0.8757987933038823  0.1567678704682005
  0.5793561321518226  0.8752246890710191  0.6573826524969149
  0.7048736188611882  0.1250000450000002  0.1022952520231159
  0.7049189851954523  0.1250000000000000  0.6021788683055000
  0.7049193127897312  0.3743526387267337  0.1019759841545945
  0.7048438996578840  0.3747871833869246  0.6023237078882030
  0.7047120210279708  0.6250001789999970  0.1016648338378175
  0.7047781332333648  0.6250000000000000  0.6020748587039932
  0.7049191937897320  0.8756475702732657  0.1019759091545919
  0.7048438996578840  0.8752128166130757  0.6023237078882030
  0.5443288154814858  0.9997243141430324  0.3968906304880172
  0.5455343189708097  0.0006398712259265  0.8975658933877139
  0.5443288154814858  0.2502756858569682  0.3968906304880172
  0.5455343189708097  0.2493601187740727  0.8975658933877139
  0.5474353655108700  0.4980656765635256  0.3986597806154715
  0.5451884805656786  0.5000168513042975  0.8971407064632909
  0.5474353655108700  0.7519342934364717  0.3986597806154715
  0.5451884805656786  0.7499832086957003  0.8971407064632909
  0.2514502825683930  0.5086605023240244  0.3646567784757355
  0.2523583997661437  0.4989502772027224  0.8712241636238598
  0.2514502825683930  0.7413395576759735  0.3646567784757355
  0.2523583997661437  0.7510497227972776  0.8712241046238656
  0.2523307755624847  0.9972353744535108  0.3713366686201890
  0.2516235690492819  0.0003855244072445  0.8718086342588665
  0.2523307755624847  0.2527646255464890  0.3713366686201890
  0.2516235690492819  0.2496144665927583  0.8718086342588665
  0.4990038955227123  0.6250000000000000  0.1304064199190153
  0.4979796518575677  0.6250000000000000  0.6265007923207632
  0.4986905437754348  0.8763657301505725  0.1293534729857847
  0.4974987952242849  0.8738737500474666  0.6252238593274455
  0.4980265211720823  0.1250000149999977  0.1280899593906685
  0.4980016676043524  0.1250000000000000  0.6275083842128856
  0.4986905437754348  0.3736342698494274  0.1293534579857870
  0.4974987952242849  0.3761262499525330  0.6252238593274455
  0.4149774782593188  0.5008682458775402  0.2176299831468900
  0.4142795650659450  0.4978602993604574  0.7203835416502837
  0.4149774782593188  0.7491316941224548  0.2176299831468900
  0.4142795650659450  0.7521397006395426  0.7203835416502837
  0.4131095837355019  0.9998736159336685  0.2172492534780875
  0.4130211776530489  0.9999354231855136  0.7163305025943547
  0.4131095837355019  0.2501263840663314  0.2172492534780875
  0.4130211776530489  0.2500645478144873  0.7163305025943547
  0.3335134392565425  0.6250000000000000  0.2675441263776253
  0.3374614060025862  0.6250000000000000  0.7888593313902869
  0.3374860362685944  0.8738424920709545  0.2814366278893011
  0.3368809560714003  0.8758050538869800  0.7816621955194815
  0.3364452001256446  0.1250000000000000  0.2817245038694265
  0.3367612209083162  0.1250000149999977  0.7811023535050063
  0.3374860362685944  0.3761575379290480  0.2814366278893011
  0.3368809560714003  0.3741949761130227  0.7816621955194815
  0.3359519760676745  0.6250000000000000  0.0514424081454692
  0.3342755721949102  0.6250000000000000  0.5763543029750089
  0.3326043517282404  0.8771604387906071  0.0523241959597487
  0.3303517075537726  0.8728985402651838  0.5529502667551145
  0.3309680605010962  0.1250000000000000  0.0541919471268087
  0.3312056714383473  0.1250000149999977  0.5529786178225182
  0.3326043517282404  0.3728395912093949  0.0523241959597487
  0.3303517075537726  0.3771014007348149  0.5529502667551145
  0.4151647479550465  0.5072017525842817  0.4437562521385928
  0.4193274369167130  0.4987222586922834  0.9459839327004280
  0.4151647479550465  0.7427983074157162  0.4437562521385928
  0.4193274369167130  0.7512777413077163  0.9459839327004280
  0.4180489440933270  0.9994678462580615  0.4450904890864676
  0.4184213206780185  0.0001255872500745  0.9445787123310710
  0.4180489440933270  0.2505321537419386  0.4450904890864676
  0.4184213206780185  0.2498744277499302  0.9445787123310710
  0.0020929551045661  0.6250000000000000  0.3662085158446673
  0.0003175051234257  0.6250000000000000  0.8721048454112905
  0.0017245390511652  0.8765779674855556  0.3705140351954912
  0.0020258441951356  0.8748279102111503  0.8757118042254948
  0.0024313589936525  0.1250000149999977  0.3717198329629086
  0.0023461987263505  0.1250000149999977  0.8736277365335599
  0.0017245340511612  0.3734220325144443  0.3705140351954912
  0.0020258541951364  0.3751720597888543  0.8757118042254948
  0.2504990053330212  0.5063025520940415  0.1309912295759086
  0.2474391164329556  0.4991804399680929  0.6277302848185466
  0.2504990053330212  0.7436974479059585  0.1309912295759086
  0.2474391314329533  0.7508197980319056  0.6277302848185466
  0.2479516422171671  0.9981137389882540  0.1289775350310549
  0.2480646541131099  0.0003662661294590  0.6290816181309004
  0.2479516422171671  0.2518862010117410  0.1289775350310549
  0.2480646541131099  0.2496337828705414  0.6290816181309004
  0.1681455173621824  0.6250000000000000  0.2211311980289366
  0.1633645293589928  0.6250000000000000  0.7147985432036981
  0.1626095184198191  0.8705367944726914  0.2174754598600674
  0.1629312647247612  0.8755062742844266  0.7185928840751482
  0.1636467113002139  0.1250000000000000  0.2190997203294125
  0.1629323513856694  0.1250000000000000  0.7198820845259166
  0.1626095184198191  0.3794631755273061  0.2174754598600674
  0.1629312797247588  0.3744937857155785  0.7185928840751482
  0.0849747737003074  0.5011488913713262  0.2831537181694216
  0.0865329177982748  0.5000567917616271  0.7826757716076205
  0.0849747807003044  0.7488511086286738  0.2831537481694241
  0.0865329257982755  0.7499432082383728  0.7826757716076205
  0.0875697377991175  0.9991645647090193  0.2839190163504350
  0.0870318347217307  0.9991868726844937  0.7844404828011214
  0.0875697377991175  0.2508354352909807  0.2839190463504375
  0.0870318497217284  0.2508131573155017  0.7844404828011214
  0.0847006087430123  0.5139496081671238  0.0540382591040606
  0.0815599357838802  0.4992667320748468  0.5562206707341903
  0.0847006087430123  0.7360504518328812  0.0540382671040613
  0.0815599357838802  0.7507334469251502  0.5562206707341903
  0.0821231694971966  0.9984580853114160  0.0559161491688156
  0.0818569891913704  0.0000033841803722  0.5560140147426508
  0.0821231624971996  0.2515419446885860  0.0559161311688141
  0.0818569821913734  0.2499967788196235  0.5560140747426557
  0.1654522970492467  0.6250000000000000  0.4445722833277208
  0.1693713547857544  0.6250000000000000  0.9347526736878018
  0.1678331715947580  0.8758931484670740  0.4471619552359762
  0.1690546970383293  0.8720665614186878  0.9481327140634225
  0.1688472706532635  0.1250000000000000  0.4470564320846334
  0.1678670321881679  0.1250000149999977  0.9480458793311570
  0.1678331865947557  0.3741068805329253  0.4471619852359716
  0.1690547120383341  0.3779334385813126  0.9481327140634225
  0.7519951886306713  0.0005469783885620  0.3716028022302199
  0.7520541490235300  0.0000835873555369  0.8717367339820146
  0.7519951886306713  0.2494530096114370  0.3716028022302199
  0.7520542690235257  0.2499163996444656  0.8717367339820146
  0.7521541001990165  0.4997633122864124  0.3714715803727874
  0.7521010977383158  0.4999196164374545  0.8719642243159488
  0.7521541001990165  0.7502367477135857  0.3714715503727849
  0.7521010977383158  0.7500803545625396  0.8719642243159488
  0.9993554297481947  0.1250000149999977  0.1296416725556516
  0.9983989653949473  0.1250000000000000  0.6299606792210917
 -0.0008947537243319  0.3782173675173946  0.1260979980585876
  0.9978492625941698  0.3750061509453670  0.6301295148700926
  0.9901855054259602  0.6250000000000000  0.1210488394489290
  0.9982118009458320  0.6250000000000000  0.6283744246104330
 -0.0008947497243316  0.8717826914826066  0.1260979980585876
  0.9978492625941698  0.8749938490546333  0.6301295148700926
  0.9140222447540304  0.9995836204177493  0.2175801228908878
  0.9135177396820275  0.0000097514751848  0.7187324559832466
  0.9140222447540304  0.2504164095822536  0.2175801228908878
  0.9135177396820275  0.2499902185248199  0.7187324559832466
  0.9122530383277943  0.4986330765200391  0.2187845008952748
  0.9130421351434743  0.4998660734360981  0.7177051313338471
  0.9122530383277943  0.7513668944799620  0.2187844868952736
  0.9130421351434743  0.7501338965638994  0.7177051313338471
  0.8373888345949109  0.1250000149999977  0.2820779544775747
  0.8370937240790967  0.1250000000000000  0.7826869692136033
  0.8366714689289831  0.3742260487145772  0.2825100728216155
  0.8363847793878368  0.3741758883765183  0.7814447411168352
  0.8366442274276442  0.6250000000000000  0.2827394107367152
  0.8360493771741671  0.6250000000000000  0.7812791589712058
  0.8366714689289831  0.8757739212854272  0.2825100728216155
  0.8363847793878368  0.8758241116234818  0.7814447411168352
  0.8322816132775936  0.1250000149999977  0.0543288963693853
  0.8322167834781767  0.1250000149999977  0.5546028246694586
  0.8322429366554916  0.3753022949408474  0.0545886724647308
  0.8321248501615849  0.3747993286067728  0.5543018995421887
  0.8322214535357906  0.6250000000000000  0.0551870942540049
  0.8321082791048842  0.6250000000000000  0.5544085969527522
  0.8322429956554930  0.8746977050591525  0.0545886724647308
  0.8321248501615849  0.8752006423932288  0.5543018395421908
  0.9187696618152277  0.0005250066240840  0.4458745432500448
  0.9191993848970440  0.9998243962296773  0.9466270654714605
  0.9187696618152277  0.2494750013759166  0.4458745432500448
  0.9191993848970440  0.2501756337703249  0.9466270654714605
  0.9196838351454788  0.5000329419593791  0.4452308982665553
  0.9163281793314264  0.4987580729679382  0.9423963735442109
  0.9196838351454788  0.7499670580406210  0.4452308982665553
  0.9163281793314264  0.7512419570320641  0.9423963735442109
  0.5015456179576373  0.1250000149999977  0.3711098959170083
  0.5021304942072855  0.1250000000000000  0.8709040713891710
  0.5014372358755587  0.3767102047144852  0.3730499154530720
  0.5028488606555416  0.3743320356956059  0.8712277310752634
  0.5056665933906085  0.6250000000000000  0.3739004222306634
  0.5021879781024928  0.6250000000000000  0.8717436600196785
  0.5014372358755587  0.8732897952855150  0.3730499154530720
  0.5028489196555429  0.8756679643043941  0.8712277310752634
  0.7481783266548988  0.0002523862509812  0.1279376402737262
  0.7479455543575154  0.0001107364014934  0.6279741880582193
  0.7481783266548988  0.2497476787490135  0.1279376252737214
  0.7479455543575154  0.2498892595985061  0.6279741880582193
  0.7476631635939197  0.4998926782981435  0.1280074880195326
  0.7477802142350687  0.4999269830766540  0.6277037308466333
  0.7476631635939197  0.7501075597018546  0.1280074880195326
  0.7477801542350637  0.7500729869233440  0.6277037308466333
  0.6632259082973606  0.1250000000000000  0.2179700126502284
  0.6631643095072254  0.1250000000000000  0.7173267825747476
  0.6635177149409937  0.3744598519006991  0.2177048139319291
  0.6633717221182258  0.3747261015794310  0.7179152877199351
  0.6634606474581198  0.6250000000000000  0.2175368402428389
  0.6634897819671181  0.6250000000000000  0.7180172621759525
  0.6635177149409937  0.8755401480993008  0.2177048289319268
  0.6633717221182258  0.8752739284205712  0.7179152877199351
  0.5865781057379948 -0.0001134223371929  0.2823871156161433
  0.5867537658256619 -0.0000305537612065  0.7813047111298578
  0.5865781057379948  0.2501133923371975  0.2823871156161433
  0.5867537658256619  0.2500305557611996  0.7813047111298578
  0.5875008439488736  0.4991624031109609  0.2817280920156567
  0.5867822612197096  0.5000842752815273  0.7816499300025798
  0.5875008439488736  0.7508375968890394  0.2817280920156567
  0.5867822612197096  0.7499157547184753  0.7816499300025798
  0.5822250172815061  0.0005935944699152  0.0545613396073584
  0.5812902185889438  0.9996730233855087  0.5538628911535837
  0.5822250172815061  0.2494063845300868  0.0545613436073587
  0.5812902185889438  0.2503269176144899  0.5538628911535837
  0.5816560944287386  0.4997411459002723  0.0544442130321950
  0.5827590161476093  0.4996998668731925  0.5555912349136559
  0.5816560944287386  0.7502589140997256  0.0544442210321886
  0.5827590161476093  0.7503001031268054  0.5555912349136559
  0.6680688418725592  0.1250000000000000  0.4453732941253032
  0.6682165986895281  0.1250000000000000  0.9450288769637848
  0.6683340458783708  0.3749169189336020  0.4451578279055201
  0.6682225145588785  0.3748964934420216  0.9450430884479813
  0.6683408667729930  0.6250000000000000  0.4447730739233855
  0.6681734230517067  0.6250000000000000  0.9448547831191026
  0.6683340458783708  0.8750831110663999  0.4451578279055201
  0.6682224545588806  0.8751035365579811  0.9450430884479813
