Mg1 Ga128 O192
1.0
24.936138 0.000000 0.000000
0.000000 12.349429 0.000000
-2.783376 0.000000 11.431629
Mg Ga O
1 128 192
direct
0.314705 0.625000 0.421137 Mg
0.063198 0.625000 0.181465 Ga
0.079541 0.625000 0.658183 Ga
0.080009 0.877718 0.160653 Ga
0.078963 0.876080 0.658130 Ga
0.080261 0.125000 0.157330 Ga
0.079656 0.125000 0.658028 Ga
0.080010 0.372282 0.160652 Ga
0.078963 0.373920 0.658129 Ga
0.171811 0.752174 0.347861 Ga
0.172256 0.752895 0.837523 Ga
0.172287 0.000902 0.344387 Ga
0.171150 0.000208 0.845663 Ga
0.172287 0.249098 0.344386 Ga
0.171150 0.249793 0.845662 Ga
0.171811 0.497825 0.347859 Ga
0.172256 0.497105 0.837523 Ga
0.042826 0.751811 0.402432 Ga
0.041431 0.750222 0.890145 Ga
0.045254 0.000628 0.398500 Ga
0.045009 0.000279 0.897804 Ga
0.045254 0.249372 0.398499 Ga
0.045009 0.249721 0.897803 Ga
0.042827 0.498189 0.402432 Ga
0.041431 0.499778 0.890145 Ga
0.138072 0.625000 0.055464 Ga
0.205732 0.625000 0.600156 Ga
0.207720 0.870058 0.103430 Ga
0.205960 0.875464 0.603846 Ga
0.206458 0.125002 0.103441 Ga
0.205433 0.125000 0.604677 Ga
0.207720 0.379943 0.103430 Ga
0.205960 0.374536 0.603845 Ga
0.332946 0.752112 0.150960 Ga
0.330366 0.751950 0.665183 Ga
0.329981 0.000516 0.158183 Ga
0.329794 0.999893 0.655228 Ga
0.329981 0.249485 0.158182 Ga
0.329794 0.250107 0.655226 Ga
0.332945 0.497888 0.150959 Ga
0.330366 0.498050 0.665182 Ga
0.424333 0.625000 0.341611 Ga
0.421477 0.625000 0.846445 Ga
0.421255 0.875331 0.344223 Ga
0.422482 0.875471 0.843879 Ga
0.421468 0.125000 0.343187 Ga
0.421170 0.125000 0.842346 Ga
0.421255 0.374670 0.344221 Ga
0.422482 0.374529 0.843878 Ga
0.247497 0.624998 0.223311 Ga
0.294654 0.624999 0.900275 Ga
0.295331 0.868963 0.395030 Ga
0.295364 0.876136 0.896509 Ga
0.294693 0.125000 0.396255 Ga
0.295470 0.125001 0.896905 Ga
0.295331 0.381037 0.395029 Ga
0.295365 0.373864 0.896508 Ga
0.457191 0.750353 0.103132 Ga
0.454770 0.749662 0.603310 Ga
0.455498 0.000333 0.102316 Ga
0.455755 0.000040 0.602672 Ga
0.455498 0.249667 0.102315 Ga
0.455755 0.249960 0.602671 Ga
0.457190 0.499647 0.103131 Ga
0.454770 0.500338 0.603309 Ga
0.579602 0.125000 0.157492 Ga
0.579602 0.125000 0.657039 Ga
0.579895 0.374447 0.157248 Ga
0.579359 0.375005 0.657476 Ga
0.580141 0.625000 0.157329 Ga
0.579296 0.625000 0.657648 Ga
0.579895 0.875553 0.157248 Ga
0.579359 0.874995 0.657476 Ga
0.670759 0.000323 0.342889 Ga
0.670812 0.000080 0.842680 Ga
0.670759 0.249677 0.342889 Ga
0.670812 0.249920 0.842680 Ga
0.670851 0.499726 0.342961 Ga
0.670716 0.499903 0.842569 Ga
0.670851 0.750274 0.342961 Ga
0.670716 0.750097 0.842569 Ga
0.545169 0.999864 0.397598 Ga
0.545793 0.000672 0.898038 Ga
0.545169 0.250136 0.397598 Ga
0.545793 0.249328 0.898038 Ga
0.546340 0.499235 0.398475 Ga
0.545446 0.499958 0.897891 Ga
0.546340 0.750765 0.398475 Ga
0.545446 0.750042 0.897891 Ga
0.705074 0.125000 0.102454 Ga
0.704790 0.125000 0.602185 Ga
0.704823 0.374440 0.102199 Ga
0.704742 0.374759 0.602436 Ga
0.704543 0.625000 0.101993 Ga
0.704671 0.625000 0.602449 Ga
0.704823 0.875560 0.102199 Ga
0.704742 0.875241 0.602436 Ga
0.829108 0.000239 0.156032 Ga
0.828511 0.000362 0.656055 Ga
0.829108 0.249761 0.156032 Ga
0.828511 0.249638 0.656055 Ga
0.827807 0.499682 0.157203 Ga
0.828175 0.499579 0.655291 Ga
0.827807 0.750318 0.157203 Ga
0.828175 0.750421 0.655291 Ga
0.920828 0.125000 0.342117 Ga
0.920396 0.125000 0.842828 Ga
0.919849 0.373764 0.342449 Ga
0.919158 0.373346 0.840100 Ga
0.919624 0.625000 0.341635 Ga
0.918049 0.625000 0.839548 Ga
0.919849 0.876236 0.342449 Ga
0.919158 0.876654 0.840100 Ga
0.795094 0.125000 0.396901 Ga
0.794791 0.125000 0.897210 Ga
0.794411 0.374454 0.397205 Ga
0.794675 0.374904 0.897296 Ga
0.794267 0.625000 0.397493 Ga
0.794524 0.625000 0.897877 Ga
0.794411 0.875545 0.397205 Ga
0.794675 0.875096 0.897296 Ga
0.956154 0.000016 0.102724 Ga
0.955121 0.000366 0.602779 Ga
0.956154 0.249984 0.102724 Ga
0.955121 0.249634 0.602779 Ga
0.949126 0.495039 0.098040 Ga
0.954641 0.500050 0.602404 Ga
0.949126 0.754961 0.098040 Ga
0.954641 0.749950 0.602404 Ga
0.251101 0.746281 0.125974 O
0.247812 0.749935 0.625370 O
0.248108 0.998348 0.128649 O
0.248103 0.000199 0.628810 O
0.248108 0.251653 0.128648 O
0.248103 0.249801 0.628809 O
0.251101 0.503722 0.125976 O
0.247812 0.500065 0.625370 O
0.002321 0.625000 0.364661 O
0.999749 0.625000 0.870257 O
0.001827 0.876641 0.369903 O
0.001636 0.875670 0.874451 O
0.002598 0.125000 0.371040 O
0.002410 0.125000 0.872959 O
0.001827 0.373359 0.369902 O
0.001636 0.374330 0.874450 O
0.084978 0.748540 0.282484 O
0.086444 0.749834 0.782198 O
0.087836 0.998742 0.283355 O
0.087185 0.999143 0.783624 O
0.087836 0.251259 0.283354 O
0.087185 0.250857 0.783623 O
0.084979 0.501459 0.282483 O
0.086444 0.500166 0.782197 O
0.168206 0.625000 0.216880 O
0.163267 0.625000 0.714632 O
0.162705 0.869179 0.216240 O
0.163115 0.875014 0.717589 O
0.163691 0.124999 0.218318 O
0.163052 0.125000 0.719149 O
0.162706 0.380821 0.216239 O
0.163115 0.374986 0.717589 O
0.166288 0.624999 0.442836 O
0.169380 0.625000 0.935362 O
0.168478 0.875192 0.445954 O
0.168701 0.872406 0.946822 O
0.169016 0.125000 0.446440 O
0.167922 0.125000 0.947342 O
0.168478 0.374808 0.445953 O
0.168701 0.377594 0.946822 O
0.082980 0.736657 0.052399 O
0.081854 0.750487 0.555751 O
0.082126 0.998323 0.055225 O
0.082076 0.999913 0.555275 O
0.082126 0.251677 0.055224 O
0.082076 0.250087 0.555274 O
0.082980 0.513343 0.052399 O
0.081854 0.499513 0.555751 O
0.499245 0.625000 0.130131 O
0.497761 0.625000 0.627624 O
0.498820 0.876092 0.129559 O
0.497869 0.874269 0.626982 O
0.498365 0.125000 0.128245 O
0.498387 0.125000 0.628450 O
0.498820 0.373908 0.129558 O
0.497869 0.375731 0.626981 O
0.252301 0.740536 0.361948 O
0.252410 0.750876 0.869827 O
0.252489 0.997152 0.370803 O
0.251762 0.000284 0.871871 O
0.252489 0.252848 0.370802 O
0.251762 0.249716 0.871870 O
0.252302 0.509464 0.361949 O
0.252410 0.499124 0.869827 O
0.332627 0.625001 0.269130 O
0.337887 0.625000 0.789781 O
0.337743 0.874795 0.281212 O
0.336964 0.875759 0.781965 O
0.336696 0.125000 0.281881 O
0.336782 0.125000 0.781283 O
0.337743 0.375205 0.281210 O
0.336964 0.374241 0.781964 O
0.414911 0.748983 0.218971 O
0.414641 0.752402 0.721582 O
0.413546 0.000212 0.217773 O
0.413087 0.000019 0.716602 O
0.413546 0.249788 0.217772 O
0.413087 0.249981 0.716601 O
0.414910 0.501017 0.218971 O
0.414641 0.497597 0.721581 O
0.416390 0.747107 0.444856 O
0.419551 0.751407 0.947323 O
0.418369 0.000044 0.445702 O
0.418564 0.000258 0.945011 O
0.418369 0.249956 0.445700 O
0.418564 0.249742 0.945010 O
0.416390 0.502892 0.444855 O
0.419551 0.498592 0.947322 O
0.336168 0.625000 0.051783 O
0.336306 0.625000 0.576435 O
0.333015 0.877431 0.052485 O
0.330102 0.872712 0.553364 O
0.331046 0.125000 0.054532 O
0.330951 0.125000 0.553125 O
0.333015 0.372570 0.052484 O
0.330102 0.377288 0.553363 O
0.748291 0.000050 0.127989 O
0.747894 0.000144 0.627877 O
0.748291 0.249950 0.127989 O
0.747894 0.249856 0.627877 O
0.747656 0.499964 0.128062 O
0.747741 0.499903 0.627755 O
0.747656 0.750036 0.128062 O
0.747741 0.750097 0.627755 O
0.502297 0.125000 0.371845 O
0.502330 0.125000 0.871457 O
0.502123 0.375676 0.372852 O
0.503114 0.374259 0.872244 O
0.503796 0.625000 0.373347 O
0.502509 0.625000 0.872777 O
0.502123 0.874324 0.372852 O
0.503114 0.875741 0.872244 O
0.586995 0.000021 0.282446 O
0.587056 0.000066 0.781947 O
0.586995 0.249979 0.282446 O
0.587056 0.249934 0.781947 O
0.587326 0.499586 0.282409 O
0.586898 0.500112 0.782117 O
0.587326 0.750414 0.282409 O
0.586898 0.749888 0.782117 O
0.663579 0.125000 0.218128 O
0.663449 0.125000 0.717870 O
0.663603 0.374677 0.218067 O
0.663433 0.374958 0.718125 O
0.663538 0.625000 0.218095 O
0.663447 0.625000 0.718235 O
0.663603 0.875323 0.218067 O
0.663433 0.875042 0.718125 O
0.668199 0.125000 0.445361 O
0.668515 0.125000 0.945337 O
0.668486 0.374785 0.445303 O
0.668441 0.374934 0.945215 O
0.668517 0.625000 0.445200 O
0.668367 0.625000 0.945081 O
0.668486 0.875215 0.445303 O
0.668441 0.875066 0.945215 O
0.582531 0.000456 0.054976 O
0.581888 0.999749 0.554665 O
0.582531 0.249544 0.054976 O
0.581888 0.250251 0.554665 O
0.582187 0.499763 0.055021 O
0.582404 0.500022 0.555463 O
0.582187 0.750237 0.055021 O
0.582404 0.749978 0.555463 O
0.999453 0.125000 0.129173 O
0.998559 0.125000 0.629381 O
0.998849 0.378218 0.125496 O
0.998014 0.375151 0.629603 O
0.989076 0.625000 0.119373 O
0.998185 0.625000 0.627507 O
0.998849 0.871782 0.125496 O
0.998014 0.874849 0.629603 O
0.752100 0.000567 0.371450 O
0.752175 0.000075 0.871785 O
0.752100 0.249433 0.371450 O
0.752175 0.249925 0.871785 O
0.752060 0.499734 0.371362 O
0.752148 0.499916 0.871974 O
0.752060 0.750266 0.371362 O
0.752148 0.750084 0.871974 O
0.837512 0.125000 0.281936 O
0.837079 0.125000 0.782288 O
0.836725 0.374224 0.282410 O
0.836267 0.374011 0.780971 O
0.836622 0.625000 0.282643 O
0.835891 0.625000 0.780844 O
0.836725 0.875776 0.282410 O
0.836267 0.875989 0.780971 O
0.914073 0.999619 0.217250 O
0.913467 0.000167 0.718064 O
0.914073 0.250381 0.217250 O
0.913467 0.249833 0.718064 O
0.912163 0.498550 0.218509 O
0.912911 0.499727 0.716922 O
0.912163 0.751450 0.218509 O
0.912911 0.750273 0.716922 O
0.919048 0.000510 0.445533 O
0.919098 0.000062 0.946080 O
0.919048 0.249490 0.445533 O
0.919098 0.249938 0.946080 O
0.920008 0.500117 0.444626 O
0.916132 0.498466 0.941258 O
0.920008 0.749883 0.444626 O
0.916132 0.751534 0.941258 O
0.832364 0.125000 0.054176 O
0.832249 0.125000 0.554232 O
0.832461 0.375433 0.054425 O
0.832142 0.374757 0.553917 O
0.832384 0.625000 0.055056 O
0.832091 0.625000 0.554007 O
0.832461 0.874567 0.054425 O
0.832142 0.875243 0.553917 O
