Mg1 Ga128 O192
1.0
24.936138 0.000000 0.000000
0.000000 12.349429 0.000000
-2.783376 0.000000 11.431629
Mg Ga O
1 128 192
direct
0.374723 0.562665 0.499551 Mg
0.077837 0.625300 0.155292 Ga
0.078145 0.625048 0.656445 Ga
0.077671 0.876247 0.154901 Ga
0.077950 0.875252 0.656553 Ga
0.077974 0.125239 0.156224 Ga
0.078091 0.124900 0.656750 Ga
0.077846 0.374360 0.155363 Ga
0.077834 0.374664 0.656844 Ga
0.166942 0.753308 0.340846 Ga
0.169429 0.750409 0.841155 Ga
0.169494 0.001421 0.341212 Ga
0.169433 0.000280 0.842456 Ga
0.169529 0.249939 0.341271 Ga
0.169389 0.249556 0.842942 Ga
0.167301 0.499085 0.341353 Ga
0.169298 0.499463 0.841400 Ga
0.043612 0.750233 0.397469 Ga
0.044052 0.750123 0.896646 Ga
0.044283 0.000280 0.397065 Ga
0.043774 0.000266 0.896527 Ga
0.044314 0.249851 0.397217 Ga
0.043782 0.249767 0.896822 Ga
0.043714 0.499867 0.397648 Ga
0.044055 0.499946 0.896915 Ga
0.202708 0.625382 0.099110 Ga
0.203298 0.626543 0.601316 Ga
0.203669 0.875561 0.101906 Ga
0.202577 0.877167 0.601365 Ga
0.204730 0.125367 0.102747 Ga
0.203565 0.124362 0.602152 Ga
0.203982 0.375422 0.102723 Ga
0.201932 0.371986 0.601609 Ga
0.327785 0.750731 0.152415 Ga
0.326322 0.755116 0.659535 Ga
0.328685 0.000217 0.156703 Ga
0.328281 0.000563 0.655473 Ga
0.328722 0.249770 0.158585 Ga
0.327838 0.246976 0.659442 Ga
0.328227 0.502237 0.156575 Ga
0.322799 0.493184 0.670470 Ga
0.426960 0.631665 0.328606 Ga
0.421294 0.622834 0.842509 Ga
0.421757 0.877888 0.339924 Ga
0.420817 0.875218 0.840726 Ga
0.421245 0.124360 0.343940 Ga
0.420880 0.124657 0.842759 Ga
0.423219 0.369895 0.339674 Ga
0.421745 0.374110 0.846710 Ga
0.282238 0.629569 0.372463 Ga
0.293505 0.624420 0.896517 Ga
0.294599 0.878499 0.395366 Ga
0.293519 0.875092 0.896609 Ga
0.294139 0.126805 0.396989 Ga
0.294095 0.124596 0.897851 Ga
0.293947 0.376386 0.398809 Ga
0.293347 0.374111 0.901935 Ga
0.456265 0.750873 0.097296 Ga
0.455691 0.748548 0.600443 Ga
0.455494 0.000348 0.101603 Ga
0.455457 0.998106 0.602496 Ga
0.456058 0.249842 0.102733 Ga
0.454974 0.246431 0.603958 Ga
0.456074 0.500532 0.102448 Ga
0.467209 0.495425 0.626550 Ga
0.580158 0.124681 0.157096 Ga
0.580086 0.123539 0.658284 Ga
0.580191 0.374548 0.158153 Ga
0.582622 0.371662 0.658537 Ga
0.580327 0.625481 0.157828 Ga
0.582294 0.625769 0.658000 Ga
0.580239 0.875389 0.156530 Ga
0.580100 0.874996 0.658197 Ga
0.671493 0.000017 0.342775 Ga
0.671603 0.999678 0.843315 Ga
0.671631 0.249675 0.342935 Ga
0.671895 0.248669 0.844552 Ga
0.671490 0.499872 0.342892 Ga
0.671766 0.499594 0.844130 Ga
0.671795 0.750247 0.342561 Ga
0.671744 0.750514 0.844084 Ga
0.545984 0.000604 0.397324 Ga
0.544852 0.999544 0.896792 Ga
0.546962 0.247779 0.398064 Ga
0.545845 0.249407 0.897506 Ga
0.546391 0.498328 0.397981 Ga
0.546805 0.499573 0.900096 Ga
0.547752 0.752978 0.397812 Ga
0.545561 0.749526 0.896599 Ga
0.705805 0.124653 0.102965 Ga
0.705308 0.124630 0.602450 Ga
0.705577 0.374766 0.102758 Ga
0.705978 0.374679 0.601981 Ga
0.705602 0.624947 0.102492 Ga
0.705883 0.625011 0.601774 Ga
0.705832 0.875144 0.102633 Ga
0.705292 0.875028 0.602265 Ga
0.829487 0.999949 0.157018 Ga
0.829215 0.999873 0.656819 Ga
0.829359 0.249885 0.157028 Ga
0.829303 0.249795 0.656860 Ga
0.829300 0.499863 0.156913 Ga
0.829417 0.499943 0.656972 Ga
0.829367 0.749942 0.156932 Ga
0.829309 0.750035 0.656954 Ga
0.920381 0.125023 0.342688 Ga
0.920124 0.124950 0.842473 Ga
0.920304 0.374847 0.342518 Ga
0.920263 0.374950 0.842504 Ga
0.920200 0.624936 0.342464 Ga
0.920335 0.625007 0.842508 Ga
0.920300 0.875100 0.342612 Ga
0.920262 0.874992 0.842445 Ga
0.795324 0.124895 0.397562 Ga
0.795411 0.124677 0.897707 Ga
0.795271 0.374959 0.397448 Ga
0.795342 0.374781 0.897608 Ga
0.795292 0.624910 0.397487 Ga
0.795324 0.624853 0.897557 Ga
0.795356 0.875076 0.397566 Ga
0.795380 0.874860 0.897609 Ga
0.954191 0.000209 0.101788 Ga
0.954262 0.000017 0.601911 Ga
0.954215 0.250034 0.101859 Ga
0.954253 0.249840 0.601902 Ga
0.954295 0.500021 0.101870 Ga
0.954345 0.499996 0.601944 Ga
0.954274 0.750068 0.101833 Ga
0.954345 0.749930 0.601979 Ga
0.246394 0.750045 0.124794 O
0.245285 0.752920 0.631602 O
0.247563 0.999878 0.128419 O
0.247150 0.000149 0.627677 O
0.247729 0.250897 0.129703 O
0.246480 0.248999 0.629900 O
0.246792 0.501078 0.126688 O
0.243662 0.498061 0.630935 O
0.001270 0.624985 0.371456 O
0.001444 0.625008 0.871308 O
0.001362 0.875454 0.371389 O
0.001298 0.875014 0.871264 O
0.001431 0.125109 0.371616 O
0.001007 0.125039 0.870937 O
0.001416 0.374693 0.371519 O
0.001328 0.375039 0.871337 O
0.085144 0.750437 0.281187 O
0.085762 0.750331 0.781300 O
0.085686 0.001079 0.281041 O
0.085750 0.000372 0.781863 O
0.085777 0.249788 0.281244 O
0.085776 0.249418 0.782143 O
0.085383 0.500446 0.281612 O
0.085778 0.499673 0.781513 O
0.162083 0.625776 0.216465 O
0.162010 0.625294 0.717244 O
0.161291 0.877106 0.215926 O
0.161835 0.876015 0.717801 O
0.162590 0.125652 0.217246 O
0.162238 0.124594 0.718028 O
0.161626 0.374427 0.216636 O
0.161641 0.373629 0.718531 O
0.168485 0.626448 0.443501 O
0.166726 0.624938 0.942840 O
0.166145 0.877522 0.444474 O
0.167593 0.875177 0.944577 O
0.167587 0.125603 0.444724 O
0.167908 0.124920 0.945911 O
0.166512 0.374059 0.444452 O
0.167808 0.374909 0.945440 O
0.080992 0.750422 0.053758 O
0.081289 0.750087 0.553975 O
0.080789 0.000824 0.053340 O
0.081159 0.000144 0.554222 O
0.080883 0.249717 0.053606 O
0.081259 0.249918 0.554404 O
0.081068 0.499990 0.054009 O
0.081369 0.499828 0.554222 O
0.498556 0.625651 0.127140 O
0.501582 0.627239 0.633479 O
0.498418 0.875655 0.126113 O
0.498233 0.873405 0.628002 O
0.498396 0.124894 0.128542 O
0.498318 0.122691 0.628737 O
0.498337 0.375281 0.127835 O
0.501988 0.365811 0.635682 O
0.247513 0.759257 0.363396 O
0.251253 0.749661 0.871461 O
0.251265 0.002245 0.370750 O
0.251197 0.000051 0.871009 O
0.251390 0.251541 0.371454 O
0.251199 0.249314 0.873257 O
0.247995 0.497609 0.365585 O
0.251049 0.499291 0.872033 O
0.333021 0.629261 0.272303 O
0.335606 0.621534 0.779731 O
0.337117 0.875196 0.281302 O
0.336223 0.874460 0.781866 O
0.336975 0.126246 0.282884 O
0.336335 0.124369 0.782535 O
0.338503 0.378915 0.287487 O
0.336011 0.373699 0.787269 O
0.413575 0.751263 0.211947 O
0.411070 0.746001 0.711643 O
0.413255 0.000578 0.216938 O
0.412589 0.998701 0.716557 O
0.413335 0.250482 0.217453 O
0.412483 0.249700 0.718080 O
0.413909 0.503564 0.219157 O
0.416404 0.495727 0.726717 O
0.422603 0.750677 0.439687 O
0.418086 0.749310 0.941169 O
0.418390 0.999592 0.445296 O
0.418266 0.999505 0.944496 O
0.418994 0.249503 0.446449 O
0.418257 0.249223 0.946242 O
0.437574 0.492426 0.450409 O
0.417577 0.499859 0.947713 O
0.332055 0.625091 0.051270 O
0.311861 0.632915 0.548473 O
0.331319 0.875714 0.053103 O
0.330599 0.875499 0.552870 O
0.331309 0.125406 0.054960 O
0.331220 0.125272 0.554177 O
0.331465 0.375644 0.058083 O
0.327164 0.374072 0.559502 O
0.748593 0.999890 0.128522 O
0.748156 0.999795 0.627947 O
0.748313 0.249864 0.128202 O
0.748228 0.249455 0.628136 O
0.748187 0.499868 0.128106 O
0.748338 0.499909 0.628011 O
0.748298 0.749884 0.128129 O
0.748185 0.750182 0.627985 O
0.502392 0.124804 0.371835 O
0.502002 0.125030 0.871093 O
0.504272 0.372084 0.367874 O
0.503109 0.374912 0.874298 O
0.506069 0.626840 0.368368 O
0.502732 0.623894 0.872440 O
0.503143 0.875896 0.369480 O
0.501811 0.874049 0.869734 O
0.587367 0.000356 0.281510 O
0.586999 0.999262 0.782284 O
0.587752 0.248945 0.281675 O
0.588247 0.247882 0.783503 O
0.587628 0.499599 0.281984 O
0.587483 0.499138 0.782832 O
0.588001 0.751300 0.280821 O
0.587947 0.750437 0.782751 O
0.663835 0.124549 0.217634 O
0.663882 0.123855 0.718451 O
0.663847 0.374571 0.218054 O
0.664444 0.374469 0.718264 O
0.663839 0.625255 0.217805 O
0.664209 0.624404 0.717812 O
0.663840 0.875557 0.217311 O
0.663818 0.875112 0.718224 O
0.668438 0.124787 0.445286 O
0.668758 0.124105 0.946157 O
0.668303 0.374884 0.445446 O
0.668587 0.374507 0.945670 O
0.668244 0.625065 0.445161 O
0.668546 0.624895 0.945422 O
0.668341 0.874941 0.445070 O
0.668692 0.875148 0.945853 O
0.581678 0.000046 0.053606 O
0.582002 0.999367 0.554746 O
0.581979 0.249745 0.054819 O
0.583423 0.247427 0.554964 O
0.582844 0.499982 0.056337 O
0.581172 0.498440 0.555803 O
0.581794 0.750079 0.053862 O
0.583117 0.750878 0.554997 O
0.997074 0.125128 0.127516 O
0.997213 0.124963 0.627616 O
0.997197 0.375019 0.127631 O
0.997182 0.374888 0.627649 O
0.997211 0.625064 0.127563 O
0.997338 0.624939 0.627530 O
0.997102 0.875196 0.127490 O
0.997207 0.875002 0.627566 O
0.752383 0.999939 0.371871 O
0.752517 0.999769 0.872020 O
0.752384 0.249916 0.371877 O
0.752490 0.249673 0.872010 O
0.752291 0.499971 0.371833 O
0.752414 0.499800 0.871889 O
0.752439 0.750009 0.371764 O
0.752412 0.749858 0.871837 O
0.836721 0.125051 0.281871 O
0.836626 0.124884 0.781702 O
0.836643 0.375075 0.281783 O
0.836613 0.374971 0.781720 O
0.836649 0.624876 0.281783 O
0.836638 0.624930 0.781738 O
0.836732 0.874822 0.281854 O
0.836652 0.874786 0.781702 O
0.912987 0.000002 0.217804 O
0.912887 0.999858 0.717628 O
0.912966 0.250102 0.217798 O
0.912883 0.250068 0.717623 O
0.912991 0.499953 0.217711 O
0.912977 0.500007 0.717644 O
0.913009 0.749906 0.217730 O
0.912979 0.749816 0.717661 O
0.917634 0.000030 0.444973 O
0.917545 0.999923 0.944859 O
0.917629 0.250007 0.444985 O
0.917584 0.250084 0.944890 O
0.917770 0.499903 0.444959 O
0.917723 0.500028 0.944884 O
0.917814 0.749962 0.444957 O
0.917708 0.749944 0.944875 O
0.832085 0.124956 0.054633 O
0.831943 0.124863 0.554515 O
0.831922 0.374907 0.054576 O
0.831780 0.374910 0.554487 O
0.831905 0.624861 0.054555 O
0.831831 0.624991 0.554491 O
0.832028 0.874830 0.054581 O
0.831955 0.874899 0.554505 O
