Co Ga  O
   1.00000000000000
    24.9361381530999999    0.0000000000000000    0.0000000000000000
     0.0000000000000000   12.3494291306000008    0.0000000000000000
    -2.7833760077999998    0.0000000000000000   11.4316290933999998
   Ca   Ga   O
     1   128   192
Direct
  0.3412334635843596  0.6250000000000000  0.4406230178950880
  0.2502977100687732  0.6250000000000000  0.2353645897373043
  0.4309013841670232  0.6250000000000000  0.3289864683434609
  0.4208472791511694  0.6250000000000000  0.8452284928400776
  0.4208830191704478  0.8752512864117930  0.3424485178993686
  0.4222276945101288  0.8757916457908060  0.8418128033711638
  0.4211276563331166  0.1250000000000000  0.3425013420205348
  0.4206472677249286  0.1250000000000000  0.8419899428146502
  0.4208830191704478  0.3747486835882046  0.3424485178993686
  0.4222277535101301  0.3742083542091939  0.8418128033711638
  0.3316347972718842  0.5001737977197073  0.1468370673965183
  0.3261933088486083  0.4971082110115583  0.6713527779736893
  0.3316347972718842  0.7498261722802974  0.1468370673965183
  0.3261933088486083  0.7528917589884462  0.6713527779736893
  0.3296995183391415  0.0000583925315708  0.1577157378279112
  0.3289458354392479 -0.0006215596426588  0.6535907665925588
  0.3296995183391415  0.2499416074684292  0.1577157378279112
  0.3289458354392479  0.2506215006426575  0.6535907665925588
  0.4583499687377683  0.4985863390631445  0.1004308050341681
  0.4564524228201412  0.5000243568287421  0.6044703421843897
  0.4583499687377683  0.7514136609368554  0.1004308050341681
  0.4564524228201412  0.7499757021712592  0.6044703421843897
  0.4554729960606345  0.0005354882056426  0.1016209012435410
  0.4555227464006129  0.0001353932234031  0.6020779355903932
  0.4554729960606345  0.2494645067943605  0.1016209012435410
  0.4555227464006129  0.2498646007765963  0.6020779355903932
  0.2929644213553567  0.6250000000000000  0.9017236866529920
  0.2934669860929430  0.8706650933553888  0.3939080965180822
  0.2943139993522805  0.8765124775619672  0.8972911263893635
  0.2946258026854980  0.1250000000000000  0.3957836344749663
  0.2949677966747163  0.1250000149999977  0.8962921930920117
  0.2934669860929430  0.3793349356446105  0.3939080965180822
  0.2943140293522759  0.3734874624380277  0.8972911263893635
  0.1732075057946911  0.4980033549388792  0.3495803053767336
  0.1712722541676660  0.4973190615198415  0.8364539388480472
  0.1732075057946911  0.7519966450611205  0.3495802763767348
  0.1712722391676683  0.7526809974801600  0.8364539388480472
  0.1713925897219551  0.0013073821515733  0.3435840346949610
  0.1699896238065002  0.0002126348884855  0.8463889046411447
  0.1713925897219551  0.2486926378484283  0.3435840636949598
  0.1699896088064954  0.2497873951115098  0.8463889046411447
  0.0645079014192223  0.6250000000000000  0.1814464890631899
  0.0800519389576528  0.6250001189999992  0.6575359417038772
  0.0803241119467750  0.8772480438884130  0.1614638872581971
  0.0777393508042941  0.8763977257263191  0.6589423038424713
  0.0798062405733287  0.1250000000000000  0.1573518143012214
  0.0787967224604842  0.1250001339999969  0.6588538444262161
  0.0803241119467750  0.3727519861115892  0.1614638872581971
  0.0777393658042989  0.3736024832736805  0.6589423038424713
  0.1410247977489457  0.6250000000000000  0.0594358116839467
  0.2092907608956376  0.6250001789999970  0.6012928438668568
  0.2074944456440625  0.8690269888249214  0.1035687732020693
  0.2025530209297982  0.8794618329188786  0.6038525608297320
  0.2064661659597964  0.1250000000000000  0.1038611480071638
  0.2045487855580480  0.1250000450000002  0.6048397904742085
  0.2074944456440625  0.3809730411750810  0.1035687582020645
  0.2025530949297973  0.3705383760811212  0.6038526208297370
  0.0431086422172074  0.4981910665427815  0.4022957691598878
  0.0422148501467468  0.5002585550613704  0.8923867802162845
  0.0431086532172048  0.7518089334572188  0.4022957991598903
  0.0422148611467442  0.7497414749386250  0.8923867802162845
  0.0449602891115850  0.0006768603180359  0.3988481809435185
  0.0443178907548778  0.0002507874452526  0.8988457914678594
  0.0449603011115860  0.2493231546819618  0.3988482409435164
  0.0443178947548781  0.2497492185547479  0.8988457914678594
  0.9207599884935883  0.1250000000000000  0.3424315232808409
  0.9201872036142402  0.1250000000000000  0.8439038272008899
  0.9199662284560327  0.3739668539975756  0.3429468584942344
  0.9193930630502292  0.3738513331975870  0.8411267951123043
  0.9199126196823506  0.6250000000000000  0.3423057689703089
  0.9184644919230196  0.6250000000000000  0.8405836050260074
  0.9199662284560327  0.8760331760024272  0.3429468584942344
  0.9193930630502292  0.8761486668024131  0.8411267951123043
  0.8294074520191638  0.0002662639482846  0.1563941724002202
  0.8288217634556275  0.0002416546777285  0.6567420786079105
  0.8294074520191638  0.2497337460517162  0.1563941574002154
  0.8288218224556289  0.2497583473222717  0.6567420786079105
  0.8282483195794078  0.4996812770271336  0.1574947120227606
  0.8285572720027865  0.4996592067357051  0.6560170749886084
  0.8282483195794078  0.7503187529728685  0.1574947120227606
  0.8285572720027865  0.7503407632642920  0.6560170749886084
  0.9561974614149938  0.9996773908515642  0.1032475536715897
  0.9544038857422934  0.0004563843945674  0.6027743029900581
  0.9561974614149938  0.2503226091484361  0.1032475536715897
  0.9544039457422913  0.2495436246054298  0.6027743029900581
  0.9497445232437723  0.4955254678075899  0.0989113387852328
  0.9545757812576651  0.5004938912192005  0.6027599671449455
  0.9497445232437723  0.7544745921924078  0.0989113387852328
  0.9545757812576651  0.7495061087807995  0.6027599671449455
  0.7953626888336002  0.1250000000000000  0.3973898127095566
  0.7949916216068018  0.1250000149999977  0.8977931638575101
  0.7948428545713422  0.3743070507389653  0.3976376570488495
  0.7949459965146864  0.3748995114531364  0.8976767973482250
  0.7948525228568926  0.6250000000000000  0.3979126430653481
  0.7948740535539212  0.6250000000000000  0.8981538345135306
  0.7948428545713422  0.8756929792610372  0.3976376570488495
  0.7949459965146864  0.8751005185468659  0.8976767383482237
  0.6709947992942338  0.0004604015504351  0.3430367170270697
  0.6711870019251048  0.0002397974921068  0.8428099118713220
  0.6709947992942338  0.2495396274495637  0.3430367170270697
  0.6711870019251048  0.2497602425078894  0.8428099118713220
  0.6716260960833751  0.4995773060002782  0.3424983112947463
  0.6711965814848602  0.4997399680256032  0.8429575871106504
  0.6716260960833751  0.7504226939997222  0.3424983112947463
  0.6711965814848602  0.7502600319743971  0.8429575871106504
  0.5796800388694389  0.1250000149999977  0.1571599664380545
  0.5797115225817180  0.1250000000000000  0.6566105875985153
  0.5804540184601423  0.3739146679282266  0.1566423964073249
  0.5801260981135017  0.3743041766389012  0.6579482155823284
  0.5806710803626841  0.6250000000000000  0.1566861122175587
  0.5805588570230367  0.6250000000000000  0.6580483448590421
  0.5804540184601423  0.8760853320717739  0.1566423964073249
  0.5801260981135017  0.8756958533610940  0.6579482155823284
  0.7052473141670118  0.1250000450000002  0.1024643797019258
  0.7051458447315599  0.1250000000000000  0.6023151616936638
  0.7053378584171965  0.3742787217449307  0.1020309486588614
  0.7051232668723986  0.3747611188991804  0.6023176802374295
  0.7051507246343326  0.6250001789999970  0.1016935024097797
  0.7050451913443062  0.6250000000000000  0.6019345771401509
  0.7053377394171974  0.8757214872550686  0.1020308736588588
  0.7051232668723986  0.8752388811008197  0.6023176802374295
  0.5448543215799602 -0.0000498092593673  0.3968966070940369
  0.5455823056526682  0.0007408475649746  0.8971588901217361
  0.5448543215799602  0.2500498092593672  0.3968966070940369
  0.5455823056526682  0.2492591424350246  0.8971588901217361
  0.5488410954007690  0.4970395431545334  0.3993551632029213
  0.5453776677741448  0.5000820919108512  0.8968861361832688
  0.5488410954007690  0.7529604268454639  0.3993551632029213
  0.5453776677741448  0.7499179680891466  0.8968861361832688
  0.2530217357438816  0.5090277527709519  0.3629663520202239
  0.2515765855340867  0.4984422014190747  0.8744943663929909
  0.2530217357438816  0.7409723072290459  0.3629663520202239
  0.2515765855340867  0.7515577985809254  0.8744943073929967
  0.2518488286962056  0.9986828632310331  0.3702877445395653
  0.2511260491885626  0.0006345093320456  0.8719690317421294
  0.2518488286962056  0.2513171367689667  0.3702877445395653
  0.2511260491885626  0.2493654816679571  0.8719690317421294
  0.4995739994632011  0.6250000000000000  0.1309883860038658
  0.4990950096846800  0.6250000000000000  0.6269627108551149
  0.4994511005708808  0.8771755315279652  0.1295924304224797
  0.4982209758220954  0.8747916189296552  0.6258342341562183
  0.4983909673962496  0.1250000149999977  0.1279319257186583
  0.4981829852138283  0.1250000000000000  0.6278366512032078
  0.4994511005708808  0.3728244684720347  0.1295924154224820
  0.4982209758220954  0.3752083810703452  0.6258342341562183
  0.4163106294227176  0.5004589446285358  0.2172734309722008
  0.4126067981385247  0.5007260998844865  0.7161057243468899
  0.4163106294227176  0.7495409953714592  0.2172734309722008
  0.4126067981385247  0.7492739001155134  0.7161057243468899
  0.4135238999054797  0.9998426596987470  0.2172581604002291
  0.4126236911002413  0.9990701162000158  0.7154947944088040
  0.4135238999054797  0.2501573403012530  0.2172581604002291
  0.4126236911002413  0.2509298547999855  0.7154947944088040
  0.3320730537279415  0.6250000000000000  0.2556065127000727
  0.3392536211599849  0.6250000000000000  0.7996023497506581
  0.3380687240143851  0.8734169271778536  0.2823798889718888
  0.3368207307871302  0.8763377257718634  0.7836254081438706
  0.3368525742106334  0.1250000000000000  0.2817356750342110
  0.3366159745234131  0.1250000149999977  0.7806209240256006
  0.3380687240143851  0.3765831028221491  0.2823798889718888
  0.3368207307871302  0.3736623042281392  0.7836254081438706
  0.3383713027611011  0.6250000000000000  0.0476946624605053
  0.3130603392444892  0.6250000000000000  0.5864625691075097
  0.3333442832643662  0.8770146050296478  0.0526473034757052
  0.3289999295901702  0.8705592917287910  0.5530066939797339
  0.3310723927524431  0.1250000000000000  0.0541082903565837
  0.3312145361164952  0.1250000149999977  0.5525071892196760
  0.3333442832643662  0.3729854249703546  0.0526473034757052
  0.3289999295901702  0.3794406492712081  0.5530066939797339
  0.4170435615080931  0.5081050492202538  0.4437572971446987
  0.4212888256702843  0.4972967122455098  0.9453279321283337
  0.4170435615080931  0.7418950107797441  0.4437572971446987
  0.4212888256702843  0.7527032877544900  0.9453279321283337
  0.4183974465030168  0.9993180374907845  0.4451199322178522
  0.4188480932450060  0.0001595675859189  0.9443104419973561
  0.4183974465030168  0.2506819625092152  0.4451199322178522
  0.4188480932450060  0.2498404474140858  0.9443104419973561
  0.0023070786578023  0.6250000000000000  0.3658504302792311
  0.0000505505687698  0.6250000000000000  0.8721997287210085
  0.0016644389418733  0.8764515966776931  0.3703030081254454
  0.0016577672798849  0.8747193782310961  0.8758362911496163
  0.0022081671720525  0.1250000149999977  0.3713772921199823
  0.0016948865219550  0.1250000149999977  0.8741419560741553
  0.0016644339418693  0.3735484033223068  0.3703030081254454
  0.0016577772798858  0.3752805917689084  0.8758362911496163
  0.2501080162872998  0.5052325670820209  0.1269572529907255
  0.2440617804761992  0.4929192836578741  0.6368875878440613
  0.2501080162872998  0.7447674329179791  0.1269572529907255
  0.2440617954761969  0.7570809543421242  0.6368875878440613
  0.2481707569409675  0.9979845673094676  0.1286026081122815
  0.2474900484605142  0.0009825861057018  0.6285883606115327
  0.2481707569409675  0.2520153726905278  0.1286026081122815
  0.2474900484605142  0.2490174628942988  0.6285883606115327
  0.1688655498039853  0.6250000000000000  0.2204508429973666
  0.1632849533730900  0.6250000000000000  0.7145247967651507
  0.1627425855406150  0.8704442426963360  0.2170207178685125
  0.1611561324885691  0.8780438628275692  0.7192749218483516
  0.1634252323996298  0.1250000000000000  0.2182905739490944
  0.1622998627549619  0.1250000000000000  0.7195737428167139
  0.1627425855406150  0.3795557273036617  0.2170207178685125
  0.1611561474885668  0.3719561971724361  0.7192749218483516
  0.0853908270232482  0.5014939193920308  0.2834113650518603
  0.0858010994162694  0.4998540660824732  0.7820014635987661
  0.0853908340232453  0.7485060806079692  0.2834113950518627
  0.0858011074162701  0.7501459339175267  0.7820014635987661
  0.0872234169042928  0.9992215100893106  0.2833050468585281
  0.0858813936799474  0.0003228207519578  0.7841717820422122
  0.0872234169042928  0.2507784899106893  0.2833050768585306
  0.0858814086799451  0.2496772092480376  0.7841717820422122
  0.0842136931064491  0.5137631974088911  0.0541316425383345
  0.0814426063433140  0.4986563834620904  0.5560650529078637
  0.0842136931064491  0.7362368625911139  0.0541316505383352
  0.0814426063433140  0.7513437955379069  0.5560650529078637
  0.0818081683385917  0.9983358710825070  0.0557799045836778
  0.0814234924835947  0.0000841094524858  0.5557580933111256
  0.0818081613385947  0.2516641589174957  0.0557798865836764
  0.0814234854835976  0.2499160535475100  0.5557581533111305
  0.1679149152286453  0.6250000000000000  0.4453157460129246
  0.1681125793565896  0.6250000000000000  0.9339374720423513
  0.1677152201994033  0.8763061734144316  0.4452586828608230
  0.1679209692264908  0.8726017168360961  0.9472679488989976
  0.1681654622791922  0.1250000000000000  0.4465178516882641
  0.1675084384134445  0.1250000149999977  0.9481324430320985
  0.1677152351994010  0.3736938555855674  0.4452587128608184
  0.1679209842264956  0.3773982831639039  0.9472679488989976
  0.7522823538679899  0.0005485085178047  0.3718349943151082
  0.7523555233629677  0.0000749629741232  0.8720757816150989
  0.7522823538679899  0.2494514794821944  0.3718349943151082
  0.7523556433629635  0.2499250240258793  0.8720757816150989
  0.7524608722664382  0.4997467044034352  0.3716027293377486
  0.7523550439354868  0.4999471038170569  0.8721900541386316
  0.7524608722664382  0.7502533555965627  0.3716026993377461
  0.7523550439354868  0.7500528671829375  0.8721900541386316
  0.9990786637293058  0.1250000149999977  0.1293474536284063
  0.9976768569580244  0.1250000000000000  0.6292750058393562
 -0.0009832451772251  0.3783419854106675  0.1260776663588692
  0.9971914783698833  0.3748853556804808  0.6297774736787827
  0.9899529637058002  0.6250000000000000  0.1207850214499250
  0.9982206151544446  0.6250000000000000  0.6279816361759969
 -0.0009832411772248  0.8716580735893336  0.1260776663588692
  0.9971914783698833  0.8751146443195194  0.6297774736787827
  0.9140440552182840  0.9994754033184017  0.2176545681577667
  0.9132798115604471 -0.0000315473068954  0.7188953855133707
  0.9140440552182840  0.2505246266816012  0.2176545681577667
  0.9132798115604471  0.2500315173069001  0.7188953855133707
  0.9123163105708874  0.4987071139638065  0.2188438528292311
  0.9129757965833086  0.4999802641560858  0.7177208511720872
  0.9123163105708874  0.7512928570361949  0.2188438388292299
  0.9129757965833086  0.7500197058439115  0.7177208511720872
  0.8374537258404638  0.1250000149999977  0.2819757904798432
  0.8370426299734702  0.1250000000000000  0.7827429477339036
  0.8367640705028616  0.3742898792800343  0.2824188120212650
  0.8363290194062045  0.3743032300272193  0.7813400751950288
  0.8367472486621303  0.6250000000000000  0.2826475688243497
  0.8360155916639158  0.6250000000000000  0.7811754711159049
  0.8367640705028616  0.8757100907199704  0.2824188120212650
  0.8363290194062045  0.8756967699727807  0.7813400751950288
  0.8325687440727675  0.1250000149999977  0.0545071123637301
  0.8324358751535250  0.1250000149999977  0.5547475416652295
  0.8324869423674914  0.3753305044142655  0.0547227366857805
  0.8323071722961110  0.3748182909725694  0.5543871782480556
  0.8323944682812409  0.6250000000000000  0.0553193038579963
  0.8322860067342008  0.6250000000000000  0.5544931842877514
  0.8324870013674928  0.8746694955857348  0.0547227366857805
  0.8323071722961110  0.8751816800274312  0.5543871182480578
  0.9184616964306085  0.0004369975310981  0.4455280210249453
  0.9188317864468655  0.9996312012308830  0.9467548032873800
  0.9184616964306085  0.2495630104689025  0.4455280210249453
  0.9188317864468655  0.2503688287691195  0.9467548032873800
  0.9195303586157445  0.5002081903701079  0.4450477006138041
  0.9159951047397366  0.4988124946894634  0.9423283137877433
  0.9195303586157445  0.7497918096298920  0.4450477006138041
  0.9159951047397366  0.7511875353105392  0.9423283137877433
  0.5019345678694299  0.1250000149999977  0.3711210338957607
  0.5020219039815399  0.1250000000000000  0.8700270144030873
  0.5021866408866573  0.3766043382064023  0.3734048600087804
  0.5029716100471446  0.3743601848614199  0.8695125965757070
  0.5079594624475626  0.6250000000000000  0.3748272323032346
  0.5023425970103421  0.6250000000000000  0.8707292836666466
  0.5021866408866573  0.8733956617935977  0.3734048600087804
  0.5029716690471460  0.8756398151385802  0.8695125965757070
  0.7485000862891844  0.0002943632908605  0.1280596202979868
  0.7481321127677325  0.0001297889903506  0.6279532403090451
  0.7485000862891844  0.2497057017091342  0.1280596052979820
  0.7481321127677325  0.2498702070096490  0.6279532403090451
  0.7479465856391833  0.4998578328809287  0.1280760639932638
  0.7479441705706577  0.4999354403592524  0.6276084396892302
  0.7479465856391833  0.7501424051190693  0.1280760639932638
  0.7479441105706527  0.7500645296407453  0.6276084396892302
  0.6635445177676181  0.1250000000000000  0.2178998533214657
  0.6635582835374322  0.1250000000000000  0.7176863635377836
  0.6639174852857146  0.3742474127685231  0.2176079113273443
  0.6638583433841440  0.3744850097237837  0.7182882022128133
  0.6638531566209578  0.6250000000000000  0.2174197542126479
  0.6639820116337892  0.6250000000000000  0.7183413374546385
  0.6639174852857146  0.8757525872314769  0.2176079263273420
  0.6638583433841440  0.8755150202762186  0.7182882022128133
  0.5870401830585015  0.0000951775683894  0.2822976828980939
  0.5871574072444548  0.0002018198376182  0.7814717454929628
  0.5870401830585015  0.2499047924316151  0.2822976828980939
  0.5871574072444548  0.2497981821623748  0.7814717454929628
  0.5881787640210118  0.4987721097879655  0.2814415899068474
  0.5872508414118696  0.4998845008526093  0.7818496838615563
  0.5881787640210118  0.7512278902120342  0.2814415899068474
  0.5872508414118696  0.7501155291473932  0.7818496838615563
  0.5824335856984989  0.0007402572924607  0.0540149289353760
  0.5817699029988634 -0.0000245467551699  0.5539750315379642
  0.5824335856984989  0.2492597217075410  0.0540149329353763
  0.5817699029988634  0.2500244877551686  0.5539750315379642
  0.5817841495123549  0.4996803730192469  0.0541626297429588
  0.5836622132206042  0.4992202029589498  0.5563518607813506
  0.5817841495123549  0.7503196869807510  0.0541626377429524
  0.5836622132206042  0.7507797670410479  0.5563518607813506
  0.6683662969609520  0.1250000000000000  0.4455016549194503
  0.6685888470303097  0.1250000000000000  0.9452921231558057
  0.6685362947769729  0.3748879150930492  0.4451798916729255
  0.6685421399661057  0.3748368124917393  0.9452392507167844
  0.6685131958423294  0.6250000000000000  0.4446632241680589
  0.6684860501017852  0.6250000000000000  0.9450268924960331
  0.6685362947769729  0.8751121149069536  0.4451798916729255
  0.6685420799661078  0.8751632175082633  0.9452392507167844
