Cation interstitial
   1.00000000000000
    24.9361379999999997    0.0000000000000000    0.0000000000000000
     0.0000000000000000   12.3494290000000007    0.0000000000000000
    -2.7833760000000001    0.0000000000000000   11.4316289999999992
   Ca   Ga   O
     1   128   192
Direct
  0.3794572851425286  0.6239496140918064  0.4753369883381708
  0.0777858129079050  0.6250302004135477  0.1555473185513421
  0.0784973790391987  0.6250106448110770  0.6571740178475807
  0.0777786713280477  0.8760033180681930  0.1551448589324096
  0.0786572582392466  0.8750228097870618  0.6568768854215108
  0.0782083588957221  0.1251085348764107  0.1564307882574667
  0.0788279265117922  0.1249074618032537  0.6568575433845041
  0.0777919141601160  0.3740704915662789  0.1552088269863106
  0.0785999709857492  0.3749182407986069  0.6569097257799186
  0.1664583060482698  0.7525784645556328  0.3413275779890981
  0.1700843083180956  0.7502808291887462  0.8416219569021450
  0.1694432586176688  0.0006647367543025  0.3414987124399431
  0.1702150954664248  0.0000867981138128  0.8425365475659419
  0.1694940773858065  0.2492244949510578  0.3416214885864335
  0.1702454719622324  0.2498624022531359  0.8425582288310949
  0.1664592864564156  0.4973010757325440  0.3414676959149219
  0.1700430125119041  0.4995915066069685  0.8417245962409297
  0.0436871362418856  0.7500361136495073  0.3980204055019883
  0.0443608607676182  0.7500329490257371  0.8969073511476040
  0.0445034347769138  0.0001663316354268  0.3973986014285842
  0.0443139226023632  0.0001737570006384  0.8964814887390915
  0.0444925913752385  0.2498469913555397  0.3973466987151539
  0.0443217863570737  0.2497777771955683  0.8965122957721476
  0.0435996626158115  0.4999105453725647  0.3979749775489054
  0.0444236890112322  0.4999521631944503  0.8968971841009719
  0.2025763148365698  0.6249396896745694  0.1003279652832632
  0.2038308979134058  0.6249154572528610  0.6023095629616435
  0.2039718710502569  0.8750827648232544  0.1030161274967298
  0.2036987973133364  0.8758014389953743  0.6018332698279139
  0.2050165570236047  0.1249329302546087  0.1032144524095671
  0.2046421283470821  0.1248560474208560  0.6022579051988544
  0.2040107662698176  0.3747873448169159  0.1030679305198845
  0.2037111354689500  0.3740327607928791  0.6017999454766070
  0.3271030667266004  0.7508960970277414  0.1565537720380661
  0.3260216275868757  0.7525306837563690  0.6609515867453624
  0.3286680229447114  0.0005792063801877  0.1557346732655063
  0.3286036852481686  0.0006567853971404  0.6557275396360609
  0.3286950304846670  0.2490544902198408  0.1557907080003744
  0.3286195678142576  0.2490673003148771  0.6558243696949262
  0.3272259740326717  0.4988972882841338  0.1568992027659633
  0.3260128905810760  0.4971808187361759  0.6610855845420787
  0.4331590090552240  0.6249078441422711  0.3104992153432136
  0.4205803800151813  0.6247987666354788  0.8392053574184075
  0.4215148489582461  0.8770341486009841  0.3423629184331745
  0.4205168735824998  0.8765295078672608  0.8420532370401901
  0.4203827284795452  0.1246746916599761  0.3434433082346331
  0.4203564327785756  0.1249527334364018  0.8427387247281573
  0.4215097257181384  0.3724141792217495  0.3425923880972093
  0.4205331317207666  0.3730623916882223  0.8423031243422656
  0.2767050921954848  0.6249231256734049  0.3791244385063735
  0.2946870708344989  0.6249401139175603  0.8988609161655816
  0.2941864069953226  0.8766692346757452  0.3972719640687856
  0.2942156066312478  0.8750189572527916  0.8981771895315944
  0.2941894004115539  0.1247849141092061  0.3964732891399194
  0.2945096127029814  0.1249039853682490  0.8961706823862912
  0.2941808266065280  0.3730896797469256  0.3974941764188813
  0.2942317222436515  0.3747058949817657  0.8982827620491207
  0.4561694698462446  0.7514609782411554  0.0957594724086803
  0.4620477003978962  0.7547525878986789  0.6122330862298355
  0.4549411527520348  0.0003711928593475  0.1020208391405717
  0.4550097819608681  0.0003961024853183  0.6024004618550620
  0.4549429334965254  0.2493774410564598  0.1020971363674761
  0.4549916665735623  0.2485752965538737  0.6024844722764513
  0.4560817427875392  0.4983114716928583  0.0958993717668832
  0.4620275551163999  0.4941680784113487  0.6125713049413051
  0.5792152139824793  0.1249299515937352  0.1568384825495386
  0.5798688999958870  0.1246349931314654  0.6577652514429815
  0.5797029849304280  0.3741170813771006  0.1572538786741617
  0.5813574296656796  0.3725921805267234  0.6590628654794699
  0.5796864483916266  0.6247890281068393  0.1580868533011355
  0.5822908821306001  0.6245517176848736  0.6593959062997286
  0.5796987913169716  0.8756384956050169  0.1571278781080068
  0.5812993386859802  0.8765841632043276  0.6590016283276725
  0.6706094653539125  0.9998397559135768  0.3431053404127908
  0.6713937444084408  0.0001308553479191  0.8440076361622886
  0.6706211866282175  0.2497246544057745  0.3430785915378749
  0.6714454158533698  0.2493594665732317  0.8440456396617861
  0.6713593527564186  0.4997119194115456  0.3424858086007987
  0.6716208435824171  0.4993165346231478  0.8444124022076593
  0.6713692881778357  0.7498363794121587  0.3424643802650635
  0.6716448186442108  0.7501362845579607  0.8444279742031497
  0.5446970615259303  0.9999230811758721  0.3973389161197503
  0.5445718857334754  0.9997634333326104  0.8962417677739438
  0.5446621426313953  0.2491875215913240  0.3973744108853410
  0.5444945436083515  0.2499071655514555  0.8961829342498433
  0.5481719865864534  0.4960752665148007  0.3996018846346203
  0.5455422591594186  0.4999310890471591  0.8974818664362871
  0.5481521249313346  0.7529949478524642  0.3997113845353653
  0.5455372535106164  0.7498032977292155  0.8974032704946353
  0.7050327666304312  0.1247091941724179  0.1032016157787510
  0.7049211748829478  0.1247342647615568  0.6024458538725028
  0.7052990633685070  0.3745934043330834  0.1028081599897490
  0.7052777111960182  0.3746965054259235  0.6021675440819436
  0.7052805454359685  0.6246997136335892  0.1026160414023423
  0.7054018864632425  0.6247142030689048  0.6017165874449333
  0.7053236859269987  0.8750785731693043  0.1028170138392355
  0.7052065060771540  0.8748292025741762  0.6020890129226686
  0.8291248223076337  0.9997938118973266  0.1574370856699616
  0.8291182785582478  0.9999025722271710  0.6569452159421303
  0.8292110345632224  0.2497326955806471  0.1573828340750154
  0.8291686731508250  0.2498160066288122  0.6569469529032546
  0.8291624198671030  0.4997908154648343  0.1572712048461611
  0.8292515622018897  0.4998004561710161  0.6571323859687723
  0.8291990700733223  0.7499276400890693  0.1572425021668806
  0.8292264575353627  0.7498570249521563  0.6571661305801015
  0.9202672024203125  0.1250167479310136  0.3427611206265411
  0.9203002857672899  0.1249969782058997  0.8421917983289759
  0.9201981575015381  0.3747884194521589  0.3426461624893022
  0.9203694918380094  0.3750031135099334  0.8423264078968415
  0.9200895270601279  0.6250178148445613  0.3425686341822498
  0.9203496575311121  0.6250355778448764  0.8423176336372151
  0.9201558376919579  0.8751005639718556  0.3426749016663706
  0.9203352909314759  0.8749832637471542  0.8421834357393791
  0.7947113140308204  0.1248675256948530  0.3972597293055173
  0.7952427598043670  0.1247113239393585  0.8975365123309089
  0.7948977702577125  0.3746911675256612  0.3973819041212820
  0.7952031425262547  0.3746742722196572  0.8974672646067461
  0.7951140816379478  0.6248860582568909  0.3974549752074523
  0.7952765918795350  0.6247193256949046  0.8974843752151216
  0.7949517055283621  0.8749888746497945  0.3973752415538314
  0.7952474165256760  0.8748182869940422  0.8974626817188351
  0.9541170696509766  0.0000988751258220  0.1021250399227469
  0.9546090235360083  0.9999491101712010  0.6023523780409974
  0.9541079968749031  0.2499134915016441  0.1021558813428882
  0.9546571194200624  0.2500222062992847  0.6024429489705909
  0.9542340213163811  0.4998949988333408  0.1021429010855073
  0.9545080505298813  0.4999998179219816  0.6022704819668263
  0.9541497895723978  0.7500492230096256  0.1021071229069008
  0.9545071709421151  0.7501471258529051  0.6023988335595334
  0.2466270872935539  0.7492205371673464  0.1291292671189268
  0.2460998309891664  0.7509252557057806  0.6275660921591779
  0.2478308234434365  0.9993310040432988  0.1292427863559880
  0.2476302220426732  0.9998464093791668  0.6274253238302947
  0.2478029558219674  0.2504842300733898  0.1293702992412094
  0.2475913475857752  0.2499506859031513  0.6275009406277334
  0.2466562379030535  0.5007174254870819  0.1291844153671775
  0.2460856109592982  0.4988694839482690  0.6276830569588512
  0.0010417431490808  0.6250341832984816  0.3717224791406437
  0.0015018950413292  0.6249760569914358  0.8712761983279123
  0.0012617070138106  0.8755602584498874  0.3716828090981039
  0.0014500559647885  0.8751238289236980  0.8712055374686045
  0.0013904586253375  0.1250560034921691  0.3718148743368772
  0.0012663135599524  0.1250048965836115  0.8706787129239899
  0.0012562756957593  0.3744598675798798  0.3716748503588647
  0.0014459735585959  0.3748720018613554  0.8712043635146216
  0.0848828362646401  0.7499171564139004  0.2816353289810039
  0.0861607002023419  0.7502537597686612  0.7819114856570266
  0.0856597416536076  0.0006704363996803  0.2813241043376848
  0.0864418976032155  0.0001823579952287  0.7822415441531447
  0.0856571730903966  0.2493148656177837  0.2812953286337248
  0.0864642738634842  0.2497744851586674  0.7822320877630347
  0.0848673232778268  0.5000004548682000  0.2815944287374208
  0.0862363383910179  0.4997488663255893  0.7818830014252640
  0.1619721446021671  0.6249015769016211  0.2174877417928798
  0.1625371348835003  0.6249217449232702  0.7179578456099875
  0.1613954476727884  0.8763058529411225  0.2166937895780379
  0.1627135153305801  0.8750537058065007  0.7181652983891098
  0.1627042792959870  0.1250252225501853  0.2174642519095116
  0.1630373940296579  0.1249607230720926  0.7178322853237731
  0.1613788061886723  0.3736158318485394  0.2166963825429917
  0.1627249055919648  0.3748078443349030  0.7182182577205012
  0.1693702225581930  0.6249623424996926  0.4436248376270342
  0.1676800157323086  0.6249300412555030  0.9435227007064029
  0.1662917736503147  0.8768917070611479  0.4450690129162140
  0.1685485388266130  0.8748487510668568  0.9452598780719370
  0.1680268661216289  0.1249187112734873  0.4449983905357300
  0.1687368641781219  0.1249256598165189  0.9457108948303841
  0.1663331964483987  0.3730242118321243  0.4450836349053446
  0.1685838803914024  0.3749726236894872  0.9453737625920056
  0.0812491005213545  0.7501628390514838  0.0539482250834382
  0.0816715037309379  0.7498224384433456  0.5541618718775609
  0.0811438661520469  0.0005204252401754  0.0532400938796869
  0.0815963898646359  0.0000690778851649  0.5543192986748693
  0.0811333791973254  0.2494191823827947  0.0532632082339290
  0.0815967848875445  0.2499825089193877  0.5543266591436620
  0.0812805262048499  0.4998353216158193  0.0539722062309238
  0.0816874780944730  0.5001856063114829  0.5541610445311562
  0.4970881494036945  0.6248910105536680  0.1312379124552194
  0.5006111570207494  0.6244654180631173  0.6318186922112830
  0.4979634472290471  0.8757715134288944  0.1280328463102052
  0.5000752058209841  0.8781969026955210  0.6303782157919571
  0.4977257853903652  0.1248738565264844  0.1285991751014350
  0.4981929092066366  0.1244919603866563  0.6280724044327002
  0.4979180035078130  0.3739796669917297  0.1280914748126847
  0.5000950582914641  0.3706713072779877  0.6305384792001973
  0.2473328172484912  0.7568409058503960  0.3670005716928557
  0.2519620213123730  0.7497214503370770  0.8720885785334502
  0.2513114031585602  0.0002604681293903  0.3708649189392972
  0.2517380312549804  0.9999548345464149  0.8712861849964355
  0.2513145861165427  0.2495786100998316  0.3708970644092844
  0.2517400575474795  0.2498401310897691  0.8713550050162837
  0.2473047324721946  0.4929461223738230  0.3670063522140339
  0.2519519025603287  0.5001060729609392  0.8721570528521028
  0.3343015110164842  0.6247814081805387  0.2858004479849967
  0.3356866011610151  0.6249003450622155  0.7796625709532137
  0.3375192880555531  0.8709385933878977  0.2843200470475864
  0.3365190222307888  0.8744771578587986  0.7825004083279268
  0.3366203767050422  0.1247351202717013  0.2817595318688859
  0.3366231259325545  0.1248197744535915  0.7812108272578797
  0.3375435885651186  0.3786392741894673  0.2843769096911473
  0.3364826582700715  0.3752001120986606  0.7826453916024434
  0.4139427324321261  0.7499062605694249  0.2142267693209945
  0.4122009435861926  0.7464907424830116  0.7122792311915660
  0.4127347575187699  0.9991260057421556  0.2172291414381391
  0.4126324878346779  0.9986452477928722  0.7168646388727353
  0.4127240243357519  0.2504716361288288  0.2173101209743535
  0.4126517991066478  0.2508648611917295  0.7169057142857369
  0.4139500889588561  0.4998316163848244  0.2145115684201286
  0.4122373978023930  0.5029929712145460  0.7126147408931303
  0.4274165460173265  0.7614808799936128  0.4458215097612168
  0.4172648103829957  0.7495640754374264  0.9412651559896617
  0.4179102404054547  0.9992967470121457  0.4457053990224225
  0.4177180844650081  0.9997949747730317  0.9451320908188237
  0.4179351848001502  0.2497831185160777  0.4458030817868703
  0.4177074722641976  0.2498465899086000  0.9452841500874740
  0.4273848672371514  0.4872033225795818  0.4463154625843231
  0.4172337619568367  0.5002455264139982  0.9414080333772432
  0.3313441347142430  0.6248144266171920  0.0574913995411990
  0.3144071414755132  0.6249174116714826  0.5547250928326619
  0.3315379468096893  0.8744254393113167  0.0553023123211744
  0.3311248278706458  0.8730208859566488  0.5539934996657010
  0.3316451057009289  0.1247953407203894  0.0534625610954151
  0.3318296766181774  0.1248681715931568  0.5531802743946699
  0.3315801224913741  0.3753825609689798  0.0554515532888828
  0.3310829562181752  0.3766271143896702  0.5541036361654434
  0.7481255021162241  0.0001084160077340  0.1287384419168021
  0.7480696349801477  0.9999354669884113  0.6279399755678909
  0.7481648120726874  0.2495403916108643  0.1288037570151630
  0.7480356988108525  0.2496414921491876  0.6279294045907733
  0.7481131215433763  0.4996355198332552  0.1285901658738737
  0.7481508672577277  0.4996266947924468  0.6279875691229719
  0.7481317312761959  0.7498597797031366  0.1285728806680382
  0.7481138590362022  0.7499161235376803  0.6279165973202012
  0.5013894533466541  0.1245021575203680  0.3715222029467427
  0.5014266720397629  0.1248185088326252  0.8704394993490254
  0.5024080812172542  0.3749622829198458  0.3725293131742689
  0.5015557217150217  0.3757170126060174  0.8702691733025176
  0.5074849256976250  0.6245591808876796  0.3753201457526814
  0.5019673236872180  0.6248749455576572  0.8714975995665313
  0.5024203386099302  0.8741749395757381  0.3724281390644535
  0.5015933548961584  0.8739572240822753  0.8702363320702489
  0.5864815672825401  0.9996947802730958  0.2816891964069299
  0.5871853750563787  0.0002421790641591  0.7826092679104804
  0.5864529102183056  0.2498440618416851  0.2817288096491026
  0.5872098581415344  0.2491421557288405  0.7826253194369315
  0.5873686209775784  0.4990122307802096  0.2812627274677340
  0.5875118080313229  0.4992335028307195  0.7830000353010362
  0.5873578477185077  0.7504657156163219  0.2811934686884996
  0.5874806879673997  0.7500744323165378  0.7829101502223139
  0.6628851794401314  0.1247887344986935  0.2174901222963967
  0.6635552197948087  0.1246261967877373  0.7183341932110139
  0.6633170812834521  0.3743968631562709  0.2173850471542735
  0.6641661758894344  0.3740987605532453  0.7186251532536900
  0.6633594912390777  0.6248001318223828  0.2173975093812501
  0.6643322943152228  0.6246313728259594  0.7185183466235401
  0.6632891774263143  0.8751884061672399  0.2173327059241572
  0.6641305562808881  0.8751687829266075  0.7186510476028758
  0.6677862494765350  0.1248487654541464  0.4455635909122435
  0.6682346401535924  0.1247184603913354  0.9463056366347260
  0.6676573686984639  0.3750276696119741  0.4454662082575638
  0.6681385745927741  0.3744755229873533  0.9461763365712770
  0.6676391136047428  0.6248007018965893  0.4451879134906775
  0.6681188038318382  0.6246902727505983  0.9459653335566713
  0.6676634176219878  0.8745020951353339  0.4454138199722735
  0.6681660791096036  0.8749716341992766  0.9461506253070837
  0.5808391183374013  0.0000303776771418  0.0537067948660663
  0.5820560694361916  0.0002599321717014  0.5542490195521879
  0.5808230818961277  0.2497093436935458  0.0537324622163311
  0.5820264980420333  0.2488204494178490  0.5543281380336325
  0.5803983445290015  0.5000607863986986  0.0550259897058112
  0.5826060225350957  0.4983888455189742  0.5570724580108077
  0.5803976942726479  0.7496297630099917  0.0549766378523984
  0.5826196488843749  0.7506622323073699  0.5570892161359495
  0.9970522546596499  0.1250441761608556  0.1275416964446094
  0.9975790741111581  0.1249672761677587  0.6279501874188398
  0.9969844294362034  0.3747593526942694  0.1276456777085500
  0.9975084444629445  0.3750129266426967  0.6278975162239746
  0.9969408425481063  0.6250094010328908  0.1275950834461739
  0.9974088310913558  0.6249816967753645  0.6278483714794021
  0.9969876441194714  0.8751837180939859  0.1276238522202533
  0.9975399261446114  0.8750520387284482  0.6279174692175786
  0.7518114054516047  0.9998465785941022  0.3717050991594064
  0.7523867590850273  0.9998456322065650  0.8721561739017574
  0.7518130668781282  0.2498274359038888  0.3717271423856445
  0.7524140388518319  0.2496299670094615  0.8721395209071190
  0.7522138342613758  0.4998245926140328  0.3717827489221435
  0.7524627018587822  0.4996847677174685  0.8721377495823646
  0.7521977807161448  0.7498558521398309  0.3717941699901743
  0.7524372525628920  0.7498058167453507  0.8721387207674809
  0.8364479121739805  0.1248951740819848  0.2821588277797318
  0.8365531324441875  0.1248886169009111  0.7817055149628018
  0.8364635949481567  0.3748420218270780  0.2820111953389954
  0.8365530518493074  0.3748404929648714  0.7817097119162355
  0.8364925482249248  0.6249180129827110  0.2819768257815056
  0.8365792293268370  0.6247962997868015  0.7817825627819417
  0.8364903987986523  0.8749490439936594  0.2821280424622117
  0.8365574817256061  0.8749156075273703  0.7816965727941820
  0.9128555077552960  0.0000438045452142  0.2179612120112751
  0.9129675748741732  0.9998923946289153  0.7175215806054638
  0.9128506473350129  0.2498539609022714  0.2179489709908538
  0.9129765060281940  0.2499420554962342  0.7175216066156977
  0.9128281886492715  0.4998574793521016  0.2178661683773626
  0.9129879603461220  0.4999258371676021  0.7176916857845796
  0.9128498093204342  0.7500463969973552  0.2178105412974389
  0.9130302736573555  0.7499613940456626  0.7177653627616252
  0.9177106424464654  0.0000724267516858  0.4454130974167541
  0.9176284438890931  0.9999638603742582  0.9448809179527942
  0.9177175953358230  0.2498919036429115  0.4454127401154082
  0.9176519387036706  0.2499401134355139  0.9448633139793330
  0.9177910746988758  0.4998495755418517  0.4452946818272707
  0.9177195854758722  0.4999068199671370  0.9448490276828849
  0.9177882941710251  0.7501141520432242  0.4452733186114060
  0.9177008440877685  0.7499899858142314  0.9449219934416391
  0.8318276083708724  0.1248683996187836  0.0547265095916956
  0.8315254466480582  0.1248828748783382  0.5542631298051859
  0.8316673107008725  0.3746634314913564  0.0546692714027728
  0.8315272654319585  0.3747452323081859  0.5544417795631631
  0.8316689200174139  0.6248157604218108  0.0547786677239444
  0.8316060448225997  0.6247929736084785  0.5545154281656011
  0.8316460992685748  0.8749551548041907  0.0546995843907041
  0.8315235417812588  0.8749116233648024  0.5544277523782668