Co   Ga   O
   1.00000000000000
    24.9361381530999999    0.0000000000000000    0.0000000000000000
     0.0000000000000000   12.3494291306000008    0.0000000000000000
    -2.7833760078000003    0.0000000000000000   11.4316290933999998
   Ca   Ga   O
     1   128   192
Direct
  0.3254393102810804  0.6249808241507946  0.3993918246667195
  0.1344498151979752  0.6249993901872551  0.5650772916488251
  0.4273028666925235  0.6250024127986277  0.3232851437327383
  0.4227711381468658  0.6250004174585643  0.8459378018530804
  0.4204098294306055  0.8742971157243583  0.3415045216729934
  0.4235466955237470  0.8769451834214756  0.8441091068704712
  0.4211643773776127  0.1250000586981653  0.3439184868391823
  0.4217718089560783  0.1250000765641743  0.8437256480000934
  0.4204097608382923  0.3757033806023274  0.3415046109932063
  0.4235464969700685  0.3730555365402922  0.8441068706120259
  0.3321850483166127  0.7482213128606583  0.1428125250574899
  0.3316097248232726  0.7556335750815225  0.6722197461272297
  0.3295429331113484  0.0000081516120337  0.1597118630189937
  0.3295752465462624  0.0006600140799182  0.6571243004644134
  0.3295430175340979  0.2499935374255511  0.1597114154193710
  0.3295752070935236  0.2493405097137466  0.6571236374323228
  0.3321855860441321  0.5017829005215925  0.1428109935962355
  0.3316089780029622  0.4943688261619358  0.6722192843792305
  0.4602039739984654  0.7529104580690272  0.0998445429606869
  0.4545174093487531  0.7493079936328407  0.5982685687734982
  0.4557535806448932  0.0008396863686020  0.1036625670011622
  0.4553579466411999  0.9997016341204219  0.6021794935583550
  0.4557533133998388  0.2491610913555471  0.1036613747195362
  0.4553580688304925  0.2502981646940068  0.6021792159462844
  0.4602034661946153  0.4970900863773304  0.0998440831115403
  0.4545179228240847  0.5006920909677414  0.5982692791081334
  0.2904888313970259  0.6250006284784897  0.8855903013545726
  0.2940630269209236  0.8721246341489649  0.3999477240098440
  0.2938438648506980  0.8764113696438457  0.8965361781813779
  0.2946788552337989  0.1249965249798607  0.3973220755197951
  0.2953732033064698  0.1250003318813362  0.8985384892897376
  0.2940611015974066  0.3778658092596326  0.3999472289201887
  0.2938440848524040  0.3735896558929124  0.8965354781264498
  0.1721876848743716  0.7564666096675743  0.3333206471315087
  0.1703583837038488  0.7517740464743448  0.8452655708915738
  0.1711228981362583  0.0011128138898425  0.3458780859158035
  0.1705505693821682  0.0012072614182361  0.8443483178177865
  0.1711219704710458  0.2488845415837304  0.3458769246192068
  0.1705508153698842  0.2487938176365348  0.8443468095373490
  0.1721869522878688  0.4935311273338191  0.3333198856344889
  0.1703584107738659  0.4982266902889049  0.8452634914927998
  0.0791048936912125  0.6249998335715227  0.1609612471352070
  0.0668638124488094  0.6250006844540424  0.7025376058505968
  0.0787805210114223  0.8770450942787174  0.1583266480603170
  0.0791886260277034  0.8781562142003826  0.6594483154639093
  0.0793450507934341  0.1249995748336833  0.1572949377063351
  0.0793092408245948  0.1250002403480779  0.6568662326514497
  0.0787806165149691  0.3729541127552397  0.1583234903851589
  0.0791886577359858  0.3718443475210816  0.6594462454477790
  0.2069548771685897  0.6250007039011090  0.1040623177960750
  0.2469687038338170  0.6250039077138230  0.5290858537338479
  0.2067592142285680  0.8746493911074708  0.1020735643231939
  0.2059267550891889  0.8708651498224015  0.6025800247260200
  0.2050642232918173  0.1250008046734614  0.1039401940639390
  0.2060024400062804  0.1250006062258510  0.6051719185703127
  0.2067595662799238  0.3753523703508397  0.1020729213173081
  0.2059269866571355  0.3791366792953521  0.6025780158647648
  0.0416620576118573  0.7509882154529893  0.3918386513402489
  0.0412047470158233  0.7538650166913065  0.9072861691158779
  0.0447903775166508  0.0004280059858705  0.3974187896728280
  0.0446270536028838  0.0012020329014190  0.8981672682559626
  0.0447903233865151  0.2495715849779439  0.3974176651381638
  0.0446272272616469  0.2487976945523317  0.8981655784606144
  0.0416619779134714  0.4990113607213564  0.3918368815009737
  0.0412047189895536  0.4961350647303377  0.9072851537561342
  0.9201297145820017  0.1249998954209345  0.8425623734871852
  0.9203205542736707  0.1249998767652076  0.3425954279109703
  0.9191756877866267  0.3734970020529650  0.8427717590373115
  0.9193447198063535  0.3736807269746547  0.3410980502877491
  0.9194512453258787  0.6249999435498732  0.8414368033015479
  0.9188055787676486  0.6249999496607705  0.3405871306845293
  0.9191756089218072  0.8765026909446736  0.8427740689350230
  0.9193446258858566  0.8763191607110766  0.3411004694931956
  0.8290350703918442  0.0002376948550323  0.6558329849742114
  0.8287763334992636  0.0003870439925972  0.1560331531243675
  0.8290350479622021  0.2497624269306548  0.6558320340448117
  0.8287763156200995  0.2496129013024157  0.1560316861658726
  0.8281896396981682  0.4998529127546984  0.6567711877895543
  0.8285551296317326  0.4997173065197310  0.1557004083766350
  0.8281896200345188  0.7501469885856018  0.6567722479106952
  0.8285551701565628  0.7502825879396404  0.1557016797470794
  0.9553374925092069  0.0000884145513393  0.6026419227632043
  0.9547936473951935  0.0003966497520550  0.1025445076862066
  0.9553374605350112  0.2499117293483649  0.6026407809657275
  0.9547937504339282  0.2496032620539211  0.1025430345096461
  0.9513380707139562  0.4969745648160575  0.6000318418814037
  0.9543631583039057  0.4999496902509659  0.1028221019255155
  0.9513378996330182  0.7530253923890661  0.6000329846445953
  0.9543632351422242  0.7500500488617079  0.1028232090281864
  0.7950555259590852  0.1249998119587510  0.8971403430735794
  0.7950095659360621  0.1249999444808292  0.3970577472804198
  0.7944437040058160  0.3746754364237808  0.8973579998286073
  0.7949665323016444  0.3748495711304929  0.3974600053452187
  0.7943992280605242  0.6250000680614668  0.8974228412757964
  0.7949676943781107  0.6249999806483821  0.3977986280068553
  0.7944436530015626  0.8753245529140959  0.8973595602608191
  0.7949664178540893  0.8751504013369482  0.3974613114628719
  0.6708387116465186  0.0002025756877158  0.8419409595776063
  0.6712549158241571  0.0004529146644013  0.3435741638174858
  0.6708387994303011  0.2497971894530421  0.8419399525180276
  0.6712549356735362  0.2495472565737053  0.3435728239157036
  0.6707613987257132  0.4998779472413267  0.8417980418616026
  0.6715009806355894  0.4997057602970045  0.3426688822676091
  0.6707612477432533  0.7501219297476888  0.8417986431708557
  0.6715010294903674  0.7502941602284022  0.3426695234809518
  0.5793757175422867  0.1249999856040420  0.6563381184603211
  0.5801704822701486  0.1250003424514454  0.1581915221963407
  0.5792792942464994  0.3749043798663239  0.6565732104000082
  0.5813298023895742  0.3734867581549218  0.1567542733589528
  0.5793511886592021  0.6249998773480383  0.6563954470565536
  0.5812138491772755  0.6249999684369834  0.1565246405141417
  0.5792791360338776  0.8750956702502103  0.6565745694700996
  0.5813298251906340  0.8765136470073406  0.1567564928881857
  0.7054624337971820  0.1250000510819469  0.6028904036737941
  0.7046906134144337  0.1250000196046563  0.1018161389740677
  0.7050010037723482  0.3747352202612956  0.6023476565502753
  0.7052366782678912  0.3746302740731098  0.1014444051054604
  0.7046769801856452  0.6249999527695795  0.6018279652701669
  0.7052081611455276  0.6250000413589500  0.1011776676515083
  0.7050009906471505  0.8752647779352196  0.6023489814922913
  0.7052366442469672  0.8753697993626790  0.1014457589705053
  0.5465887175634431  0.0010789481413481  0.8984799650931092
  0.5449481419580029 -0.0000566193067163  0.3969400058139942
  0.5465885909283204  0.2489210978328515  0.8984781704245621
  0.5449481504417392  0.2500567823297866  0.3969390526338919
  0.5460685481794589  0.4996730291873005  0.8969140848043802
  0.5472534229422887  0.4979905878361687  0.3973821545001700
  0.5460686379248197  0.7503271132648779  0.8969151007704808
  0.5472536455199625  0.7520097862119525  0.3973838556747428
  0.2519320310351235  0.7423125765322396  0.3875982200337236
  0.2498592099262726  0.7526448688314761  0.8681568827901329
  0.2518057587312378  0.9988576510980833  0.3724415790426673
  0.2510746529186458  0.0010605075162447  0.8712903875933758
  0.2518047361834049  0.2511345349382531  0.3724408390155186
  0.2510749022281407  0.2489404297485260  0.8712895978439364
  0.2519299024537737  0.5076771193290849  0.3875966710906333
  0.2498593679865239  0.4973561644701752  0.8681553596075344
  0.5003546228147758  0.6250001277029114  0.1285557081207900
  0.4977529563205965  0.6250001396034169  0.6249053581269221
  0.5008830238432761  0.8791297941001923  0.1279457288294526
  0.4974523053636083  0.8737037117198825  0.6251787400551159
  0.4988492997289051  0.1250004726134667  0.1294147193005906
  0.4978959241765039  0.1249999595070817  0.6278827919830959
  0.5008827258458342  0.3708710589023439  0.1279452016794639
  0.4974523778380297  0.3762961785371621  0.6251784968491240
  0.4181328715494935  0.7579620799393448  0.2129060603184270
  0.4144163938641082  0.7509599993677945  0.7179533591479523
  0.4129221019256529  0.0002595193767317  0.2176293922792279
  0.4134389053726290  0.0002869879934812  0.7180851902946064
  0.4129219486627929  0.2497417129447738  0.2176290108224960
  0.4134387647802923  0.2497134690174797  0.7180842668360602
  0.4181320015168705  0.4920403116466200  0.2129058758852059
  0.4144158956610885  0.4990405911387690  0.7179519619949720
  0.3472794994470011  0.6250033635312432  0.2446620900345262
  0.3399424936775262  0.6250001797393213  0.7912314796875888
  0.3361962850463210  0.8722297807671301  0.2832337685117017
  0.3376018795624592  0.8767769643938451  0.7860100871166160
  0.3365800429944856  0.1250001871086457  0.2830283960393973
  0.3366886622847571  0.1250003166954200  0.7824887394498372
  0.3361960293020821  0.3777715824431186  0.2832358201847312
  0.3376017691192259  0.3732239361407902  0.7860088435839879
  0.3310133101074009  0.6250016479048811  0.0358236634089917
  0.3264215296609954  0.6250024042399710  0.5776308186287635
  0.3312818375298798  0.8771529731796469  0.0524193164939209
  0.3322151623657802  0.8742594343838116  0.5569784426453336
  0.3311787973782981  0.1250005399941131  0.0556027420563580
  0.3307526198862094  0.1249999233217797  0.5545505280582222
  0.3312816340264207  0.3728493917215828  0.0524193437364449
  0.3322147442140980  0.3757413588694773  0.5569770727114072
  0.4146891866872757  0.7428100057031201  0.4399732362388464
  0.4215633757763380  0.7521407812181317  0.9451950778718231
  0.4180642821515549  0.9991526420743984  0.4450987841274514
  0.4190812962589033  0.0005080531100343  0.9462434201687561
  0.4180643718630949  0.2508476772980786  0.4450985852713308
  0.4190810937412317  0.2494928175890616  0.9462422165953083
  0.4146894225092787  0.5071904705189370  0.4399734156081266
  0.4215633060156321  0.4978593845316002  0.9451941624797815
  0.0003920800677515  0.6249998751950898  0.3694835717345725
  0.0025275887604932  0.6250001781879120  0.8668214522831965
  0.0013992839851696  0.8760860270504840  0.3728024244537761
  0.0004621799721281  0.8782677269726281  0.8724013915245385
  0.0021687761365405  0.1249997697962020  0.3717875666644145
  0.0016528976609162  0.1249998705116086  0.8715794935408701
  0.0013993123973785  0.3739135169514240  0.3728008390471764
  0.0004623758575320  0.3717320011106384  0.8724007470418471
  0.2494937925084430  0.7498383085637946  0.1310767835440596
  0.2483143338744457  0.7465022937154552  0.6310479717709044
  0.2480989029132131  0.0004681947674391  0.1287392543383780
  0.2476213453994873  0.9981616861145315  0.6297094377629744
  0.2480991569006994  0.2495333943774491  0.1287390799651877
  0.2476213500663935  0.2518397281047000  0.6297083328277358
  0.2494943204772415  0.5001636116618350  0.1310768339933506
  0.2483141092845448  0.5035007386153029  0.6310448460861651
  0.1639126320111106  0.6249998206029282  0.2191960651664299
  0.1541208345771189  0.6250001796566774  0.7253843252781035
  0.1636383703279693  0.8753201376798290  0.2161496330367145
  0.1613867257186989  0.8713682208935877  0.7160432922156202
  0.1631438462440139  0.1249992544367650  0.2195522867735641
  0.1627175946664722  0.1250003878278001  0.7185590324180638
  0.1636381495195157  0.3746791353878129  0.2161477363474448
  0.1613870245630257  0.3786325396625579  0.7160419580240456
  0.0874858019300337  0.7486890061160899  0.2846328872768366
  0.0829037618870303  0.7561219590349068  0.7892836207676149
  0.0871110496864975  0.9991462184790880  0.2830132063105977
  0.0866143671372784 -0.0000421763081883  0.7827974327859479
  0.0871107976745367  0.2508526195563990  0.2830117947994852
  0.0866145337728084  0.2500429396995405  0.7827961823799088
  0.0874857993619020  0.5013105656603654  0.2846316680924715
  0.0829035698306724  0.4938784867817728  0.7892823307097108
  0.0817200364681542  0.7502946141656507  0.0589629134406785
  0.0829782836253117  0.7423102333506512  0.5508258949131389
  0.0817824006081123  0.0000407966103151  0.0549637277146338
  0.0816174285207481  0.9992464765009963  0.5545685187968593
  0.0817824201260060  0.2499579184667336  0.0549624295273351
  0.0816173349736101  0.2507532390161473  0.5545675239300079
  0.0817200660637011  0.4997056604047311  0.0589617550928485
  0.0829783805612682  0.5076885435901966  0.5508240956419858
  0.1701459660975647  0.6249996020987343  0.4473375479926284
  0.1683872779079547  0.6250001591211040  0.9469926449365649
  0.1675485496231843  0.8737903914012610  0.4453279081517093
  0.1678152555277358  0.8757752191950783  0.9461287510538161
  0.1681926733118247  0.1249988685141286  0.4480663913893459
  0.1673035047525786  0.1250009284489587  0.9470570436811510
  0.1675474476767127  0.3762068282502004  0.4453269047998090
  0.1678156622588506  0.3742259772442755  0.9461277565958380
  0.7521393139246457  0.0003813981105024  0.8713208470012306
  0.7524731730200287  0.0000174016297786  0.3719725548286403
  0.7521393774160119  0.2496184689744604  0.8713199415937237
  0.7524732241698775  0.2499826393000338  0.3719719819665759
  0.7520406599604412  0.4998836494006231  0.8713358784751405
  0.7525386893910190  0.4999899702455937  0.3717726712008025
  0.7520406368008941  0.7501163467556065  0.8713362994513064
  0.7525386881757000  0.7500099222517967  0.3717733509726621
  0.9985207447780950  0.1250001004585591  0.6287459372983738
  0.9983161529283632  0.1249998533667937  0.1287572071680193
  0.9985043406389229  0.3769281324679428  0.6259491067490150
  0.9979037495251702  0.3751313188198546  0.1295306549961402
  0.9934684916296179  0.6250000383369497  0.6230127966748787
  0.9978852505988491  0.6249998208074956  0.1276879279045343
  0.9985042500766725  0.8730718642450143  0.6259496514248647
  0.9979035801038993  0.8748684853060626  0.1295317398270431
  0.9135282776360751  0.9996839969026374  0.7175235798588774
  0.9133638894928291  0.0001010624833630  0.2180806901662675
  0.9135282391425690  0.2503160346574450  0.7175225590061686
  0.9133639025601816  0.2498988262356474  0.2180792933669929
  0.9127049982946562  0.4994260463443467  0.7184384406022506
  0.9130019239817486  0.4997654895540575  0.2176333623251933
  0.9127048870181160  0.7505738229448492  0.7184395209111446
  0.9130019052264778  0.7502343958387940  0.2176345586166969
  0.8370275196367776  0.1249999997674797  0.7815636267475302
  0.8370743806756160  0.1250000406737089  0.2820093976725347
  0.8365961586480983  0.3749545766755776  0.7822228848013935
  0.8365606279693192  0.3745441254680275  0.2814080995407794
  0.8366312046111883  0.6249998934330488  0.7824079942541191
  0.8364007703667424  0.6249999370411276  0.2813128992018137
  0.8365961878524405  0.8750454309490361  0.7822241993939593
  0.8365606447244360  0.8754557751090997  0.2814096629462602
  0.8323818517839418  0.1249999939523373  0.5540574393098932
  0.8323179297946780  0.1249997378212225  0.0541764693457017
  0.8325348000392644  0.3754198437684641  0.5545097972188024
  0.8322448543078856  0.3749398330403238  0.0540331799570467
  0.8325090378123270  0.6250001078315360  0.5548832381495149
  0.8323115825480313  0.6250001475339557  0.0540202957347597
  0.8325348048508663  0.8745801202780472  0.5545110182916152
  0.8322448806400687  0.8750601958969264  0.0540345523493687
  0.9177892322983403  0.0007244118994871  0.9459293443588231
  0.9187231064433989  0.0000977514589951  0.4458283553340930
  0.9177891645865704  0.2492757878771166  0.9459281964185349
  0.9187231570375678  0.2499025225328196  0.4458270932357589
  0.9198182978301660  0.5003096467949577  0.9449403970107292
  0.9174543089550447  0.4993482815753331  0.4431996268029395
  0.9198182262722516  0.7496898821903734  0.9449415759783276
  0.9174541522293850  0.7506512558409313  0.4432006984431804
  0.5028811171305639  0.1250000431401747  0.8723708867674457
  0.5019513633578522  0.1250000932530619  0.3712721097869301
  0.5038284687616302  0.3737765977067344  0.8710084830239005
  0.5021231110935016  0.3757153746584771  0.3732606352771455
  0.5033909408256277  0.6250000664790722  0.8710634753937158
  0.5053938300040982  0.6250002918509086  0.3713656178967618
  0.5038286122736485  0.8762235106955463  0.8710096816973452
  0.5021233055721549  0.8742848990934761  0.3732615307905449
  0.7483937137041266  0.9998138265180567  0.6281842880818534
  0.7481134985506369  0.0003678831852556  0.1274616146056349
  0.7483936826446566  0.2501862618462046  0.6281837928287900
  0.7481135089870677  0.2496322477490006  0.1274606443835551
  0.7478599328126700  0.5001075467383198  0.6278817909391923
  0.7480849657363342  0.4999031980610990  0.1273420779258522
  0.7478598844177521  0.7498923754790967  0.6278823135432663
  0.7480850295348875  0.7500968790615524  0.1273430253029003
  0.6634738731181472  0.1249999593839893  0.7172863561774934
  0.6641341458501221  0.1250001780396757  0.2190081352185340
  0.6634449696426274  0.3747343549337967  0.7174616179295692
  0.6643160304601005  0.3746553690639147  0.2180018128522722
  0.6634283450394916  0.6249998660920352  0.7174344967933780
  0.6641647679526472  0.6250000433779634  0.2174809708886392
  0.6634449945693234  0.8752656195037541  0.7174628735832039
  0.6643160673153781  0.8753446040721145  0.2180032109335250
  0.5870319229080371  0.0001113573252706  0.7810298514883310
  0.5875478512303214  0.0004164841766865  0.2829504578231871
  0.5870319686264454  0.2498886533958909  0.7810288411495645
  0.5875478035568193  0.2495839586692851  0.2829495234777933
  0.5870173583079836  0.4999825769058769  0.7806672324476798
  0.5880423695393150  0.4991348812671061  0.2814025043659880
  0.5870173191073017  0.7500174929298298  0.7806679725620835
  0.5880424498489265  0.7508652135535168  0.2814037933731403
  0.5816354887313219 -0.0000436911416749  0.5540798276067298
  0.5840764063330105  0.0014747575188237  0.0548170216441271
  0.5816353475677510  0.2500436307394923  0.5540789589687981
  0.5840761274076852  0.2485253297870930  0.0548154993866421
  0.5826479524599644  0.4998384455180284  0.5546008139853754
  0.5826489336811055  0.4994013793457437  0.0540545726554923
  0.5826482393705257  0.7501617380019114  0.5546020144171002
  0.5826488894120880  0.7505990750693315  0.0540558179744629
  0.6683413105439515  0.1250001746596289  0.9445530744339458
  0.6689339959949149  0.1250003024770923  0.4461248485394039
  0.6684358244702235  0.3749656816733005  0.9445312264803940
  0.6687610171824706  0.3749970309437641  0.4452610253223313
  0.6683178050900944  0.6249998101456016  0.9444052312524864
  0.6686669768092791  0.6249997539909270  0.4446045354828152
  0.6684358703819281  0.8750342788549521  0.9445325103055972
  0.6687610991190561  0.8750029173343264  0.4452620565701556
